[TITLE]
Tunduma Water Supply Project - Momba (Saisi) River to Tunduma, design year 2035
Corrected model built by build_model.py - pump curves: design duty points from water_hydraulics.py
Minor losses folded into C (C x 0.950); station losses as K on *_STATION pipes; tanks at fixed levels (snapshot).

[JUNCTIONS]
;ID	Elev	Demand
MOMBA_INTAKE	1359.00	0.000
MOMBA_INTAKE_PS	1365.94	0.000
MOMBA_INTAKE_DIS	1365.94	0.000
GRIT_TANK_PS	1365.94	0.000
GRIT_TANK_DIS	1365.94	0.000
MOMBA_WTP_PS	1372.10	0.000
MOMBA_WTP_DIS	1372.10	0.000
NKANGAMO_BPS_PS	1555.50	0.000
NKANGAMO_BPS_DIS	1555.50	0.000
J-001N	1698.34	0.000
J-002N	1699.25	0.000
J-003N	1699.34	0.000
UHURU_PARK_GBR_DIST	1692.30	187.681
TUNDUMA_ESR_DIST	1698.50	4.300
UHURU_GSR01_DIST	1693.40	17.900
IPITO_GSR02_DIST	1676.20	7.200
J-004N	1630.08	0.000
MAKAMBINI_GSR03_DIST	1650.70	7.200
CHAPWA_GSR04_DIST	1516.40	7.200
N0002	1365.87	0.000
N0003	1366.02	0.000
N0004	1366.08	0.000
N0005	1366.21	0.000
N0006	1366.33	0.000
N0007	1367.37	0.000
N0008	1368.42	0.000
N0009	1370.17	0.000
N0010	1371.20	0.000
N0011	1372.47	0.000
N0012	1371.99	0.000
N0013	1372.35	0.000
N0014	1372.37	0.000
N0015	1372.43	0.000
N0016	1372.18	0.000
N0017	1372.10	0.000
N0018	1371.84	0.000
N0019	1371.59	0.000
N0020	1371.93	0.000
N0022	1373.21	0.000
N0023	1374.10	0.000
N0024	1375.25	0.000
N0025	1376.32	0.000
N0026	1377.16	0.000
N0027	1378.79	0.000
N0028	1379.95	0.000
N0029	1381.63	0.000
N0030	1383.37	0.000
N0031	1384.37	0.000
N0032	1386.20	0.000
N0033	1387.64	0.000
N0034	1388.72	0.000
N0035	1389.80	0.000
N0036	1390.58	0.000
N0037	1390.97	0.000
N0038	1391.04	0.000
N0039	1390.70	0.000
N0040	1390.44	0.000
N0041	1389.94	0.000
N0042	1389.31	0.000
N0043	1388.49	0.000
N0044	1388.22	0.000
N0045	1387.99	0.000
N0046	1388.63	0.000
N0047	1389.69	0.000
N0048	1390.51	0.000
N0049	1391.89	0.000
N0050	1393.24	0.000
N0051	1394.99	0.000
N0052	1396.88	0.000
N0053	1398.17	0.000
N0054	1398.98	0.000
N0055	1399.83	0.000
N0056	1400.71	0.000
N0057	1401.28	0.000
N0058	1402.51	0.000
N0059	1403.71	0.000
N0060	1403.85	0.000
N0061	1402.19	0.000
N0062	1402.74	0.000
N0063	1404.09	0.000
N0064	1405.49	0.000
N0065	1407.13	0.000
N0066	1406.31	0.000
N0068	1406.47	0.000
N0069	1406.00	0.000
N0070	1403.04	0.000
N0071	1403.22	0.000
N0072	1403.75	0.000
N0073	1403.80	0.000
N0074	1402.97	0.000
N0075	1403.86	0.000
N0076	1404.24	0.000
N0077	1405.35	0.000
N0078	1405.88	0.000
N0079	1406.79	0.000
N0080	1406.98	0.000
N0081	1407.60	0.000
N0082	1407.88	0.000
N0083	1408.59	0.000
N0084	1409.33	0.000
N0085	1410.25	0.000
N0086	1410.87	0.000
N0087	1411.46	0.000
N0088	1412.28	0.000
N0089	1412.95	0.000
N0090	1413.43	0.000
N0091	1414.25	0.000
N0092	1414.68	0.000
N0093	1415.15	0.000
N0094	1415.51	0.000
N0095	1415.48	0.000
N0096	1415.18	0.000
N0097	1414.66	0.000
N0098	1414.13	0.000
N0099	1413.30	0.000
N0100	1412.71	0.000
N0101	1411.74	0.000
N0102	1410.83	0.000
N0103	1409.98	0.000
N0104	1409.52	0.000
N0105	1408.29	0.000
N0106	1407.40	0.000
N0107	1406.76	0.000
N0108	1405.66	0.000
N0109	1405.10	0.000
N0110	1404.58	0.000
N0111	1404.75	0.000
N0112	1404.56	0.000
N0113	1404.66	0.000
N0114	1404.89	0.000
N0115	1404.90	0.000
N0116	1405.10	0.000
N0117	1405.39	0.000
N0118	1406.54	0.000
N0119	1405.80	0.000
N0120	1405.79	0.000
N0121	1405.89	0.000
N0122	1406.14	0.000
N0123	1406.53	0.000
N0124	1406.99	0.000
N0125	1407.45	0.000
N0126	1407.79	0.000
N0127	1408.18	0.000
N0128	1408.98	0.000
N0129	1409.62	0.000
N0130	1410.26	0.000
N0131	1410.70	0.000
N0132	1411.31	0.000
N0133	1411.85	0.000
N0134	1412.28	0.000
N0135	1413.04	0.000
N0136	1413.79	0.000
N0137	1414.05	0.000
N0138	1415.10	0.000
N0139	1415.26	0.000
N0140	1416.17	0.000
N0141	1416.66	0.000
N0142	1418.37	0.000
N0143	1417.86	0.000
N0144	1418.47	0.000
N0145	1419.25	0.000
N0146	1419.92	0.000
N0147	1420.26	0.000
N0148	1420.99	0.000
N0149	1421.59	0.000
N0150	1421.94	0.000
N0151	1422.38	0.000
N0152	1423.03	0.000
N0153	1423.16	0.000
N0154	1423.09	0.000
N0155	1423.97	0.000
N0156	1423.84	0.000
N0157	1424.28	0.000
N0158	1424.67	0.000
N0159	1424.84	0.000
N0160	1424.77	0.000
N0161	1424.90	0.000
N0162	1424.45	0.000
N0163	1424.59	0.000
N0164	1424.76	0.000
N0165	1424.59	0.000
N0166	1424.85	0.000
N0167	1424.00	0.000
N0168	1424.60	0.000
N0169	1424.68	0.000
N0170	1425.32	0.000
N0171	1425.90	0.000
N0172	1426.10	0.000
N0173	1426.89	0.000
N0174	1426.97	0.000
N0175	1427.23	0.000
N0176	1427.92	0.000
N0177	1427.78	0.000
N0178	1428.17	0.000
N0179	1428.23	0.000
N0180	1428.47	0.000
N0181	1428.35	0.000
N0182	1428.65	0.000
N0183	1429.44	0.000
N0184	1429.47	0.000
N0185	1428.89	0.000
N0186	1428.94	0.000
N0187	1428.77	0.000
N0188	1429.09	0.000
N0189	1429.26	0.000
N0190	1428.36	0.000
N0191	1428.03	0.000
N0192	1427.63	0.000
N0193	1427.43	0.000
N0194	1427.25	0.000
N0195	1427.59	0.000
N0196	1427.04	0.000
N0197	1427.08	0.000
N0198	1427.35	0.000
N0199	1427.23	0.000
N0200	1427.71	0.000
N0201	1428.10	0.000
N0202	1428.86	0.000
N0203	1429.55	0.000
N0204	1429.71	0.000
N0205	1429.55	0.000
N0206	1429.91	0.000
N0207	1430.21	0.000
N0208	1430.45	0.000
N0209	1430.33	0.000
N0210	1430.23	0.000
N0211	1430.08	0.000
N0212	1430.26	0.000
N0213	1429.35	0.000
N0214	1428.97	0.000
N0215	1429.29	0.000
N0216	1428.43	0.000
N0217	1428.09	0.000
N0218	1427.97	0.000
N0219	1427.85	0.000
N0220	1427.67	0.000
N0221	1427.19	0.000
N0222	1426.81	0.000
N0223	1427.15	0.000
N0224	1425.87	0.000
N0225	1426.01	0.000
N0226	1425.68	0.000
N0227	1424.91	0.000
N0228	1424.62	0.000
N0229	1424.20	0.000
N0230	1424.48	0.000
N0231	1423.48	0.000
N0232	1423.17	0.000
N0233	1422.95	0.000
N0234	1422.74	0.000
N0235	1421.48	0.000
N0236	1421.50	0.000
N0237	1421.52	0.000
N0238	1420.52	0.000
N0239	1419.90	0.000
N0240	1419.82	0.000
N0241	1419.58	0.000
N0242	1419.54	0.000
N0243	1419.22	0.000
N0244	1419.10	0.000
N0245	1418.84	0.000
N0246	1418.44	0.000
N0247	1416.65	0.000
N0248	1416.14	0.000
N0249	1417.15	0.000
N0250	1417.02	0.000
N0251	1416.51	0.000
N0252	1417.72	0.000
N0253	1418.69	0.000
N0254	1418.71	0.000
N0255	1418.43	0.000
N0256	1418.37	0.000
N0257	1418.92	0.000
N0258	1419.29	0.000
N0259	1418.45	0.000
N0260	1418.98	0.000
N0261	1421.64	0.000
N0262	1422.92	0.000
N0263	1424.42	0.000
N0264	1425.45	0.000
N0265	1426.28	0.000
N0266	1427.89	0.000
N0267	1429.33	0.000
N0268	1430.19	0.000
N0269	1431.75	0.000
N0270	1432.43	0.000
N0271	1433.57	0.000
N0272	1434.94	0.000
N0273	1436.40	0.000
N0274	1437.42	0.000
N0275	1438.64	0.000
N0276	1439.36	0.000
N0277	1440.23	0.000
N0278	1440.84	0.000
N0279	1442.16	0.000
N0280	1442.35	0.000
N0281	1443.01	0.000
N0282	1443.34	0.000
N0283	1443.51	0.000
N0284	1443.52	0.000
N0285	1443.56	0.000
N0286	1443.04	0.000
N0287	1442.89	0.000
N0288	1442.63	0.000
N0289	1442.67	0.000
N0290	1442.03	0.000
N0291	1441.84	0.000
N0292	1441.54	0.000
N0293	1441.42	0.000
N0294	1441.23	0.000
N0295	1441.26	0.000
N0296	1441.42	0.000
N0297	1441.66	0.000
N0298	1441.64	0.000
N0299	1442.35	0.000
N0300	1442.44	0.000
N0301	1442.64	0.000
N0302	1442.83	0.000
N0303	1443.07	0.000
N0304	1443.62	0.000
N0305	1444.14	0.000
N0306	1444.66	0.000
N0307	1444.83	0.000
N0308	1445.53	0.000
N0309	1446.20	0.000
N0310	1446.46	0.000
N0311	1446.97	0.000
N0312	1447.66	0.000
N0313	1447.96	0.000
N0314	1448.22	0.000
N0315	1448.71	0.000
N0316	1448.76	0.000
N0317	1449.15	0.000
N0318	1448.84	0.000
N0319	1449.37	0.000
N0320	1449.58	0.000
N0321	1449.79	0.000
N0322	1449.86	0.000
N0323	1450.43	0.000
N0324	1450.12	0.000
N0325	1450.13	0.000
N0326	1450.61	0.000
N0327	1450.79	0.000
N0328	1450.81	0.000
N0329	1450.70	0.000
N0330	1451.04	0.000
N0331	1451.11	0.000
N0332	1451.77	0.000
N0333	1451.14	0.000
N0334	1451.21	0.000
N0335	1451.67	0.000
N0336	1451.54	0.000
N0337	1451.99	0.000
N0338	1452.02	0.000
N0339	1452.07	0.000
N0340	1452.49	0.000
N0341	1452.62	0.000
N0342	1452.73	0.000
N0343	1452.97	0.000
N0344	1452.83	0.000
N0345	1452.90	0.000
N0346	1452.95	0.000
N0347	1452.90	0.000
N0348	1452.31	0.000
N0349	1452.30	0.000
N0350	1451.49	0.000
N0351	1451.20	0.000
N0352	1450.80	0.000
N0353	1450.74	0.000
N0354	1450.28	0.000
N0355	1450.92	0.000
N0356	1451.34	0.000
N0357	1452.75	0.000
N0358	1452.24	0.000
N0359	1453.13	0.000
N0360	1454.34	0.000
N0361	1455.25	0.000
N0362	1456.51	0.000
N0363	1456.28	0.000
N0364	1457.01	0.000
N0365	1457.67	0.000
N0366	1457.56	0.000
N0367	1458.03	0.000
N0368	1458.33	0.000
N0369	1458.57	0.000
N0370	1459.18	0.000
N0371	1459.65	0.000
N0372	1460.70	0.000
N0373	1460.81	0.000
N0374	1461.62	0.000
N0375	1462.33	0.000
N0376	1462.83	0.000
N0377	1463.80	0.000
N0378	1464.98	0.000
N0379	1466.89	0.000
N0380	1467.15	0.000
N0381	1468.41	0.000
N0382	1469.50	0.000
N0383	1468.98	0.000
N0384	1469.59	0.000
N0385	1470.10	0.000
N0386	1470.88	0.000
N0387	1471.61	0.000
N0388	1472.71	0.000
N0389	1473.96	0.000
N0390	1474.50	0.000
N0391	1476.31	0.000
N0392	1477.26	0.000
N0393	1477.66	0.000
N0394	1478.19	0.000
N0395	1479.22	0.000
N0396	1482.67	0.000
N0397	1486.74	0.000
N0398	1490.37	0.000
N0399	1494.50	0.000
N0400	1501.16	0.000
N0401	1509.64	0.000
N0402	1522.84	0.000
N0403	1645.96	0.000
N0404	1646.42	0.000
N0405	1648.63	0.000
N0406	1649.59	0.000
N0407	1649.70	0.000
N0408	1646.52	0.000
N0409	1649.65	0.000
N0410	1655.69	0.000
N0411	1661.36	0.000
NKANGAMO_BPS_IN	1552.50	0.000
NKANGAMO_BPS_VD	1552.50	0.000
N0413	1579.17	0.000
N0414	1555.04	0.000
N0415	1537.70	0.000
N0416	1522.84	0.000
N0417	1510.10	0.000
N0418	1502.46	0.000
N0419	1496.78	0.000
N0420	1490.49	0.000
N0421	1486.84	0.000
N0422	1482.69	0.000
N0423	1479.62	0.000
N0424	1480.19	0.000
N0425	1481.29	0.000
N0426	1482.18	0.000
N0427	1482.82	0.000
N0428	1482.80	0.000
N0429	1480.39	0.000
N0430	1477.15	0.000
N0431	1475.43	0.000
N0432	1472.93	0.000
N0433	1471.75	0.000
N0434	1470.11	0.000
N0435	1468.25	0.000
N0436	1467.10	0.000
N0437	1465.95	0.000
N0438	1464.72	0.000
N0439	1463.52	0.000
N0440	1461.76	0.000
N0441	1460.69	0.000
N0442	1459.34	0.000
N0443	1458.97	0.000
N0444	1457.77	0.000
N0445	1457.01	0.000
N0446	1456.65	0.000
N0447	1457.33	0.000
N0448	1456.05	0.000
N0449	1456.18	0.000
N0450	1456.26	0.000
N0451	1456.49	0.000
N0452	1456.29	0.000
N0453	1456.23	0.000
N0454	1457.11	0.000
N0455	1457.10	0.000
N0456	1458.05	0.000
N0457	1458.72	0.000
N0458	1459.22	0.000
N0459	1459.83	0.000
N0460	1459.77	0.000
N0461	1460.05	0.000
N0462	1460.41	0.000
N0463	1459.92	0.000
N0464	1459.75	0.000
N0465	1459.06	0.000
N0466	1459.48	0.000
N0467	1458.44	0.000
N0468	1457.89	0.000
N0469	1458.35	0.000
N0470	1458.60	0.000
N0471	1458.48	0.000
N0472	1458.45	0.000
N0473	1458.37	0.000
N0474	1458.60	0.000
N0475	1458.60	0.000
N0476	1458.80	0.000
N0477	1459.03	0.000
N0478	1459.58	0.000
N0479	1459.82	0.000
N0480	1460.21	0.000
N0481	1460.30	0.000
N0482	1460.55	0.000
N0483	1460.70	0.000
N0484	1461.01	0.000
N0485	1461.40	0.000
N0486	1461.45	0.000
N0487	1462.07	0.000
N0488	1462.46	0.000
N0489	1462.99	0.000
N0490	1463.64	0.000
N0491	1464.46	0.000
N0492	1464.83	0.000
N0493	1465.58	0.000
N0494	1466.45	0.000
N0495	1466.97	0.000
N0496	1467.05	0.000
N0497	1467.42	0.000
N0498	1469.29	0.000
N0499	1468.42	0.000
N0500	1468.97	0.000
N0501	1469.46	0.000
N0502	1470.29	0.000
N0503	1471.41	0.000
N0504	1472.39	0.000
N0505	1473.49	0.000
N0506	1474.44	0.000
N0507	1475.64	0.000
N0508	1477.18	0.000
N0509	1478.70	0.000
N0510	1480.49	0.000
N0511	1481.55	0.000
N0512	1483.24	0.000
N0513	1484.43	0.000
N0514	1485.66	0.000
N0515	1485.65	0.000
N0516	1484.99	0.000
N0517	1484.65	0.000
N0518	1483.50	0.000
N0519	1481.82	0.000
N0520	1482.10	0.000
N0521	1481.05	0.000
N0522	1480.83	0.000
N0523	1480.85	0.000
N0524	1480.72	0.000
N0525	1481.29	0.000
N0526	1481.56	0.000
N0527	1481.89	0.000
N0528	1483.52	0.000
N0529	1483.38	0.000
N0530	1483.63	0.000
N0531	1484.61	0.000
N0532	1485.91	0.000
N0533	1485.57	0.000
N0534	1486.66	0.000
N0535	1487.43	0.000
N0536	1489.02	0.000
N0537	1490.06	0.000
N0538	1490.86	0.000
N0539	1492.22	0.000
N0540	1494.65	0.000
N0541	1494.47	0.000
N0542	1496.36	0.000
N0543	1497.90	0.000
N0544	1498.72	0.000
N0545	1501.70	0.000
N0546	1499.98	0.000
N0547	1501.05	0.000
N0548	1501.49	0.000
N0549	1502.22	0.000
N0550	1503.31	0.000
N0551	1503.27	0.000
N0552	1504.21	0.000
N0553	1505.70	0.000
N0554	1506.00	0.000
N0555	1507.06	0.000
N0556	1506.71	0.000
N0557	1507.40	0.000
N0558	1507.29	0.000
N0559	1507.59	0.000
N0560	1508.12	0.000
N0561	1508.77	0.000
N0562	1509.48	0.000
N0563	1509.61	0.000
N0564	1511.87	0.000
N0565	1514.00	0.000
N0566	1515.05	0.000
N0567	1517.52	0.000
N0568	1520.66	0.000
N0569	1520.87	0.000
N0570	1520.46	0.000
N0571	1520.42	0.000
N0572	1520.61	0.000
N0573	1519.72	0.000
N0574	1518.39	0.000
N0575	1517.52	0.000
N0576	1517.22	0.000
N0577	1517.15	0.000
N0578	1517.31	0.000
N0579	1517.41	0.000
N0580	1517.61	0.000
N0581	1518.88	0.000
N0582	1519.79	0.000
N0583	1521.15	0.000
N0584	1522.18	0.000
N0585	1522.74	0.000
N0586	1523.46	0.000
N0587	1523.19	0.000
N0588	1522.99	0.000
N0589	1521.71	0.000
N0590	1520.39	0.000
N0591	1518.55	0.000
N0592	1516.79	0.000
N0593	1514.82	0.000
N0594	1513.02	0.000
N0595	1510.65	0.000
N0596	1509.18	0.000
N0597	1508.49	0.000
N0598	1507.63	0.000
N0599	1506.52	0.000
N0600	1506.70	0.000
N0601	1506.53	0.000
N0602	1506.39	0.000
N0603	1506.78	0.000
N0604	1506.75	0.000
N0605	1506.97	0.000
N0606	1506.36	0.000
N0607	1506.26	0.000
N0608	1506.46	0.000
N0609	1505.88	0.000
N0610	1506.20	0.000
N0611	1506.39	0.000
N0612	1506.72	0.000
N0613	1507.46	0.000
N0614	1508.08	0.000
N0615	1508.29	0.000
N0616	1508.91	0.000
N0617	1509.82	0.000
N0618	1510.06	0.000
N0619	1510.60	0.000
N0620	1510.64	0.000
N0621	1510.22	0.000
N0622	1509.19	0.000
N0623	1508.47	0.000
N0624	1507.05	0.000
N0625	1506.02	0.000
N0626	1504.75	0.000
N0627	1503.07	0.000
N0628	1501.64	0.000
N0629	1500.02	0.000
N0630	1499.36	0.000
N0631	1497.28	0.000
N0632	1496.52	0.000
N0633	1492.75	0.000
N0634	1495.30	0.000
N0635	1495.95	0.000
N0636	1496.10	0.000
N0637	1496.59	0.000
N0638	1496.19	0.000
N0639	1497.77	0.000
N0640	1497.70	0.000
N0641	1497.94	0.000
N0642	1497.86	0.000
N0643	1497.17	0.000
N0644	1496.71	0.000
N0645	1496.21	0.000
N0646	1497.06	0.000
N0647	1495.92	0.000
N0648	1495.83	0.000
N0649	1496.28	0.000
N0650	1495.38	0.000
N0651	1494.83	0.000
N0652	1493.90	0.000
N0653	1492.72	0.000
N0654	1491.37	0.000
N0655	1489.16	0.000
N0656	1487.37	0.000
N0657	1491.24	0.000
N0658	1493.32	0.000
N0659	1495.81	0.000
N0660	1498.33	0.000
N0661	1500.75	0.000
N0662	1503.49	0.000
N0663	1504.89	0.000
N0664	1507.04	0.000
N0665	1508.67	0.000
N0666	1510.53	0.000
N0667	1511.89	0.000
N0668	1513.15	0.000
N0669	1513.76	0.000
N0670	1514.19	0.000
N0671	1513.97	0.000
N0672	1513.35	0.000
N0673	1512.72	0.000
N0674	1510.49	0.000
N0675	1508.99	0.000
N0676	1506.45	0.000
N0677	1504.91	0.000
N0678	1502.40	0.000
N0679	1499.33	0.000
N0680	1497.68	0.000
N0681	1495.35	0.000
N0682	1493.52	0.000
N0683	1491.44	0.000
N0684	1489.48	0.000
N0685	1485.19	0.000
N0686	1482.67	0.000
N0687	1486.35	0.000
N0688	1488.62	0.000
N0689	1490.13	0.000
N0690	1492.05	0.000
N0691	1494.42	0.000
N0692	1495.46	0.000
N0693	1497.84	0.000
N0694	1500.31	0.000
N0695	1502.43	0.000
N0696	1505.19	0.000
N0697	1507.31	0.000
N0698	1509.23	0.000
N0699	1510.97	0.000
N0700	1512.99	0.000
N0701	1514.39	0.000
N0702	1515.68	0.000
N0703	1516.20	0.000
N0704	1516.33	0.000
N0705	1516.40	0.000
N0706	1515.58	0.000
N0707	1514.99	0.000
N0708	1515.41	0.000
N0709	1513.65	0.000
N0710	1513.48	0.000
N0711	1514.47	0.000
N0712	1515.56	0.000
N0713	1516.21	0.000
N0714	1517.70	0.000
N0715	1518.87	0.000
N0716	1519.48	0.000
N0717	1520.88	0.000
N0718	1520.84	0.000
N0719	1521.50	0.000
N0720	1523.84	0.000
N0721	1525.15	0.000
N0722	1527.14	0.000
N0723	1527.97	0.000
N0724	1529.94	0.000
N0725	1530.98	0.000
N0726	1532.16	0.000
N0727	1533.19	0.000
N0728	1533.96	0.000
N0729	1534.41	0.000
N0730	1535.06	0.000
N0731	1535.45	0.000
N0732	1538.34	0.000
N0733	1540.43	0.000
N0734	1542.92	0.000
N0735	1545.92	0.000
N0736	1547.55	0.000
N0737	1550.09	0.000
N0738	1551.83	0.000
N0739	1553.22	0.000
N0740	1554.97	0.000
N0741	1556.26	0.000
N0742	1557.50	0.000
N0743	1557.62	0.000
N0744	1557.46	0.000
N0745	1556.31	0.000
N0746	1555.58	0.000
N0747	1554.69	0.000
N0748	1553.18	0.000
N0749	1553.02	0.000
N0750	1552.82	0.000
N0751	1552.72	0.000
N0752	1552.64	0.000
N0753	1552.68	0.000
N0754	1552.71	0.000
N0755	1554.10	0.000
N0756	1554.85	0.000
N0757	1555.38	0.000
N0758	1556.56	0.000
N0759	1556.56	0.000
N0760	1557.08	0.000
N0761	1557.54	0.000
N0762	1558.01	0.000
N0763	1558.23	0.000
N0764	1558.01	0.000
N0765	1557.42	0.000
N0766	1556.96	0.000
N0767	1556.66	0.000
N0768	1556.64	0.000
N0769	1554.80	0.000
N0770	1554.54	0.000
N0771	1554.04	0.000
N0772	1552.27	0.000
N0773	1553.30	0.000
N0774	1549.30	0.000
N0775	1549.47	0.000
N0776	1549.49	0.000
N0777	1549.23	0.000
N0778	1549.92	0.000
N0779	1551.45	0.000
N0780	1554.68	0.000
N0781	1555.31	0.000
N0782	1556.12	0.000
N0783	1557.85	0.000
N0784	1558.72	0.000
N0785	1559.56	0.000
N0786	1560.98	0.000
N0787	1561.80	0.000
N0788	1562.31	0.000
N0789	1563.01	0.000
N0790	1564.44	0.000
N0791	1565.23	0.000
N0792	1565.42	0.000
N0793	1566.40	0.000
N0794	1566.96	0.000
N0795	1567.73	0.000
N0796	1568.00	0.000
N0797	1568.73	0.000
N0798	1568.84	0.000
N0799	1568.92	0.000
N0800	1568.78	0.000
N0801	1568.78	0.000
N0802	1568.33	0.000
N0803	1568.25	0.000
N0804	1567.07	0.000
N0805	1565.85	0.000
N0806	1565.86	0.000
N0807	1564.67	0.000
N0808	1563.87	0.000
N0809	1564.00	0.000
N0810	1563.50	0.000
N0811	1562.31	0.000
N0812	1562.24	0.000
N0813	1561.91	0.000
N0814	1561.64	0.000
N0815	1561.91	0.000
N0816	1560.26	0.000
N0817	1559.37	0.000
N0818	1558.16	0.000
N0819	1558.02	0.000
N0820	1556.35	0.000
N0821	1553.59	0.000
N0822	1553.42	0.000
N0823	1551.78	0.000
N0824	1551.36	0.000
N0825	1546.80	0.000
N0826	1546.52	0.000
N0827	1543.58	0.000
N0828	1540.56	0.000
N0829	1538.39	0.000
N0830	1536.67	0.000
N0831	1534.20	0.000
N0832	1531.33	0.000
N0833	1529.77	0.000
N0834	1526.49	0.000
N0835	1524.57	0.000
N0836	1522.14	0.000
N0837	1519.98	0.000
N0838	1517.90	0.000
N0839	1515.48	0.000
N0840	1513.90	0.000
N0841	1511.94	0.000
N0842	1508.31	0.000
N0843	1509.38	0.000
N0844	1510.71	0.000
N0845	1511.38	0.000
N0846	1513.92	0.000
N0847	1514.86	0.000
N0848	1517.41	0.000
N0849	1518.85	0.000
N0850	1520.50	0.000
N0851	1522.32	0.000
N0852	1523.61	0.000
N0853	1524.48	0.000
N0854	1525.80	0.000
N0855	1526.68	0.000
N0856	1528.09	0.000
N0857	1529.29	0.000
N0858	1529.85	0.000
N0859	1530.56	0.000
N0860	1531.47	0.000
N0861	1531.68	0.000
N0862	1532.05	0.000
N0863	1532.43	0.000
N0864	1532.69	0.000
N0865	1532.13	0.000
N0866	1532.23	0.000
N0867	1531.91	0.000
N0868	1531.90	0.000
N0869	1531.62	0.000
N0870	1531.32	0.000
N0871	1531.19	0.000
N0872	1530.74	0.000
N0873	1530.46	0.000
N0874	1530.06	0.000
N0875	1528.78	0.000
N0876	1527.93	0.000
N0877	1527.06	0.000
N0878	1525.43	0.000
N0879	1524.13	0.000
N0880	1522.99	0.000
N0881	1520.49	0.000
N0882	1519.11	0.000
N0883	1517.38	0.000
N0884	1515.88	0.000
N0885	1514.20	0.000
N0886	1512.64	0.000
N0887	1512.59	0.000
N0888	1510.42	0.000
N0889	1508.83	0.000
N0890	1507.23	0.000
N0891	1506.12	0.000
N0892	1504.19	0.000
N0893	1502.53	0.000
N0894	1500.76	0.000
N0895	1499.18	0.000
N0896	1499.28	0.000
N0897	1499.08	0.000
N0898	1500.10	0.000
N0899	1501.73	0.000
N0900	1503.97	0.000
N0901	1505.55	0.000
N0902	1507.56	0.000
N0903	1509.20	0.000
N0904	1511.11	0.000
N0905	1511.99	0.000
N0906	1513.61	0.000
N0907	1514.24	0.000
N0908	1514.90	0.000
N0909	1515.55	0.000
N0910	1515.78	0.000
N0911	1515.32	0.000
N0912	1515.42	0.000
N0913	1514.89	0.000
N0914	1515.52	0.000
N0915	1514.85	0.000
N0916	1514.40	0.000
N0917	1513.87	0.000
N0918	1512.97	0.000
N0919	1512.08	0.000
N0920	1510.47	0.000
N0921	1509.00	0.000
N0922	1507.92	0.000
N0923	1505.22	0.000
N0924	1503.50	0.000
N0925	1501.62	0.000
N0926	1499.46	0.000
N0927	1496.40	0.000
N0928	1494.46	0.000
N0929	1491.45	0.000
N0930	1487.84	0.000
N0931	1483.08	0.000
N0932	1479.18	0.000
N0933	1479.48	0.000
N0934	1485.85	0.000
N0935	1489.21	0.000
N0936	1491.10	0.000
N0937	1492.86	0.000
N0938	1494.57	0.000
N0939	1495.90	0.000
N0940	1497.18	0.000
N0941	1497.99	0.000
N0942	1498.67	0.000
N0943	1498.24	0.000
N0944	1497.87	0.000
N0945	1495.81	0.000
N0946	1495.30	0.000
N0947	1494.03	0.000
N0948	1492.19	0.000
N0949	1490.65	0.000
N0950	1488.98	0.000
N0951	1486.62	0.000
N0952	1484.97	0.000
N0953	1482.90	0.000
N0954	1481.60	0.000
N0955	1482.43	0.000
N0956	1483.56	0.000
N0957	1485.30	0.000
N0958	1486.32	0.000
N0959	1487.08	0.000
N0960	1486.97	0.000
N0961	1487.35	0.000
N0962	1487.56	0.000
N0963	1486.22	0.000
N0964	1485.93	0.000
N0965	1484.33	0.000
N0966	1482.39	0.000
N0967	1481.31	0.000
N0968	1478.91	0.000
N0969	1476.80	0.000
N0970	1474.64	0.000
N0971	1475.41	0.000
N0972	1477.38	0.000
N0973	1478.85	0.000
N0974	1480.95	0.000
N0975	1483.44	0.000
N0976	1484.11	0.000
N0977	1486.81	0.000
N0978	1488.06	0.000
N0979	1488.62	0.000
N0980	1489.09	0.000
N0981	1489.62	0.000
N0982	1489.62	0.000
N0983	1490.74	0.000
N0984	1490.81	0.000
N0985	1490.19	0.000
N0986	1491.38	0.000
N0987	1490.52	0.000
N0988	1489.88	0.000
N0989	1488.96	0.000
N0990	1487.71	0.000
N0991	1486.96	0.000
N0992	1485.90	0.000
N0993	1483.27	0.000
N0994	1483.63	0.000
N0995	1482.36	0.000
N0996	1482.26	0.000
N0997	1483.68	0.000
N0998	1484.59	0.000
N0999	1485.79	0.000
N1000	1486.52	0.000
N1001	1487.00	0.000
N1002	1487.45	0.000
N1003	1487.20	0.000
N1004	1486.51	0.000
N1005	1485.88	0.000
N1006	1486.33	0.000
N1007	1486.23	0.000
N1008	1485.79	0.000
N1009	1486.74	0.000
N1010	1486.73	0.000
N1011	1487.13	0.000
N1012	1487.36	0.000
N1013	1486.61	0.000
N1014	1486.52	0.000
N1015	1486.24	0.000
N1016	1485.34	0.000
N1017	1483.94	0.000
N1018	1483.19	0.000
N1019	1483.01	0.000
N1020	1481.06	0.000
N1021	1479.18	0.000
N1022	1477.61	0.000
N1023	1475.47	0.000
N1024	1472.90	0.000
N1025	1470.31	0.000
N1026	1468.81	0.000
N1027	1465.72	0.000
N1028	1462.91	0.000
N1029	1458.62	0.000
N1030	1455.93	0.000
N1031	1450.82	0.000
N1032	1452.27	0.000
N1033	1456.10	0.000
N1034	1458.46	0.000
N1035	1461.02	0.000
N1036	1465.32	0.000
N1037	1469.15	0.000
N1038	1472.97	0.000
N1039	1477.00	0.000
N1040	1480.56	0.000
N1041	1482.91	0.000
N1042	1486.20	0.000
N1043	1489.61	0.000
N1044	1489.75	0.000
N1045	1491.74	0.000
N1046	1493.77	0.000
N1047	1495.98	0.000
N1048	1496.14	0.000
N1049	1497.38	0.000
N1050	1497.77	0.000
N1051	1497.57	0.000
N1052	1497.64	0.000
N1053	1496.59	0.000
N1054	1495.34	0.000
N1055	1495.24	0.000
N1056	1494.08	0.000
N1057	1493.81	0.000
N1058	1492.10	0.000
N1059	1490.33	0.000
N1060	1489.75	0.000
N1061	1489.07	0.000
N1062	1489.66	0.000
N1063	1488.80	0.000
N1064	1488.17	0.000
N1065	1486.56	0.000
N1066	1485.65	0.000
N1067	1484.73	0.000
N1068	1484.82	0.000
N1069	1483.45	0.000
N1070	1481.37	0.000
N1071	1482.36	0.000
N1072	1480.82	0.000
N1073	1480.38	0.000
N1074	1480.15	0.000
N1075	1479.62	0.000
N1076	1479.34	0.000
N1077	1478.27	0.000
N1078	1478.69	0.000
N1079	1479.11	0.000
N1080	1477.93	0.000
N1081	1479.91	0.000
N1082	1482.62	0.000
N1083	1484.30	0.000
N1084	1487.82	0.000
N1085	1488.67	0.000
N1086	1491.61	0.000
N1087	1494.70	0.000
N1088	1495.41	0.000
N1089	1497.31	0.000
N1090	1498.60	0.000
N1091	1500.12	0.000
N1092	1500.97	0.000
N1093	1501.46	0.000
N1094	1502.59	0.000
N1095	1503.02	0.000
N1096	1503.11	0.000
N1097	1503.19	0.000
N1098	1503.98	0.000
N1099	1503.65	0.000
N1100	1504.63	0.000
N1101	1505.99	0.000
N1102	1505.77	0.000
N1103	1507.35	0.000
N1104	1508.80	0.000
N1105	1508.57	0.000
N1106	1509.71	0.000
N1107	1510.22	0.000
N1108	1510.63	0.000
N1109	1510.39	0.000
N1110	1510.05	0.000
N1111	1509.19	0.000
N1112	1508.80	0.000
N1113	1507.84	0.000
N1114	1506.86	0.000
N1115	1505.84	0.000
N1116	1505.65	0.000
N1117	1506.12	0.000
N1118	1507.46	0.000
N1119	1509.71	0.000
N1120	1510.58	0.000
N1121	1512.27	0.000
N1122	1514.29	0.000
N1123	1515.83	0.000
N1124	1517.10	0.000
N1125	1518.48	0.000
N1126	1519.00	0.000
N1127	1519.85	0.000
N1128	1520.56	0.000
N1129	1520.66	0.000
N1130	1520.69	0.000
N1131	1521.01	0.000
N1132	1521.35	0.000
N1133	1522.22	0.000
N1134	1523.56	0.000
N1135	1524.50	0.000
N1136	1530.19	0.000
N1137	1530.28	0.000
N1138	1536.68	0.000
N1139	1536.65	0.000
N1140	1541.25	0.000
N1141	1544.00	0.000
N1142	1546.48	0.000
N1143	1546.77	0.000
N1144	1546.94	0.000
N1145	1547.09	0.000
N1146	1547.14	0.000
N1147	1547.90	0.000
N1148	1547.62	0.000
N1149	1547.26	0.000
N1150	1547.87	0.000
N1151	1548.31	0.000
N1152	1547.99	0.000
N1153	1547.27	0.000
N1154	1547.24	0.000
N1155	1545.11	0.000
N1156	1543.68	0.000
N1157	1545.00	0.000
N1158	1546.07	0.000
N1159	1546.02	0.000
N1160	1545.78	0.000
N1161	1545.52	0.000
N1162	1545.61	0.000
N1163	1544.84	0.000
N1164	1545.12	0.000
N1165	1543.60	0.000
N1166	1541.19	0.000
N1167	1539.62	0.000
N1168	1539.71	0.000
N1169	1536.73	0.000
N1170	1534.80	0.000
N1171	1534.27	0.000
N1172	1533.45	0.000
N1173	1533.92	0.000
N1174	1534.77	0.000
N1175	1536.65	0.000
N1176	1537.40	0.000
N1177	1538.99	0.000
N1178	1540.14	0.000
N1179	1541.28	0.000
N1180	1542.26	0.000
N1181	1544.40	0.000
N1182	1545.42	0.000
N1183	1547.62	0.000
N1184	1547.09	0.000
N1185	1561.64	0.000
N1186	1562.08	0.000
N1187	1563.01	0.000
N1188	1563.68	0.000
N1189	1564.55	0.000
N1190	1565.37	0.000
N1191	1565.78	0.000
N1192	1566.39	0.000
N1193	1566.54	0.000
N1194	1567.20	0.000
N1195	1567.77	0.000
N1196	1568.46	0.000
N1197	1569.61	0.000
N1198	1569.44	0.000
N1199	1570.28	0.000
N1200	1571.11	0.000
N1201	1570.83	0.000
N1202	1571.59	0.000
N1203	1572.34	0.000
N1204	1573.25	0.000
N1205	1573.25	0.000
N1206	1574.38	0.000
N1207	1575.01	0.000
N1208	1576.08	0.000
N1209	1576.08	0.000
N1210	1577.32	0.000
N1211	1577.78	0.000
N1212	1578.51	0.000
N1213	1578.51	0.000
N1214	1579.49	0.000
N1215	1579.82	0.000
N1216	1580.70	0.000
N1217	1581.40	0.000
N1218	1581.53	0.000
N1219	1581.72	0.000
N1220	1581.76	0.000
N1221	1582.14	0.000
N1222	1582.03	0.000
N1223	1582.05	0.000
N1224	1581.82	0.000
N1225	1581.68	0.000
N1226	1581.65	0.000
N1227	1581.56	0.000
N1228	1581.36	0.000
N1229	1581.11	0.000
N1230	1580.96	0.000
N1231	1580.84	0.000
N1232	1581.03	0.000
N1233	1581.11	0.000
N1234	1580.73	0.000
N1235	1580.41	0.000
N1236	1580.14	0.000
N1237	1579.96	0.000
N1238	1579.70	0.000
N1239	1579.01	0.000
N1240	1578.87	0.000
N1241	1578.68	0.000
N1242	1578.10	0.000
N1243	1577.86	0.000
N1244	1577.31	0.000
N1245	1577.01	0.000
N1246	1576.71	0.000
N1247	1576.39	0.000
N1248	1576.02	0.000
N1249	1575.46	0.000
N1250	1575.19	0.000
N1251	1574.81	0.000
N1252	1574.26	0.000
N1253	1573.99	0.000
N1254	1573.32	0.000
N1255	1573.07	0.000
N1256	1572.36	0.000
N1257	1571.66	0.000
N1258	1571.06	0.000
N1259	1570.29	0.000
N1260	1569.80	0.000
N1261	1568.64	0.000
N1262	1568.64	0.000
N1263	1567.50	0.000
N1264	1566.27	0.000
N1265	1565.34	0.000
N1266	1565.34	0.000
N1267	1564.37	0.000
N1268	1562.95	0.000
N1269	1563.13	0.000
N1270	1562.91	0.000
N1271	1562.88	0.000
N1272	1562.83	0.000
N1273	1563.29	0.000
N1274	1563.09	0.000
N1275	1563.13	0.000
N1276	1563.82	0.000
N1277	1563.84	0.000
N1278	1564.99	0.000
N1279	1566.33	0.000
N1280	1566.33	0.000
N1281	1567.91	0.000
N1282	1568.59	0.000
N1283	1568.59	0.000
N1284	1569.55	0.000
N1285	1570.34	0.000
N1286	1570.01	0.000
N1287	1570.76	0.000
N1288	1571.65	0.000
N1289	1571.65	0.000
N1290	1571.88	0.000
N1291	1572.24	0.000
N1292	1572.41	0.000
N1293	1572.67	0.000
N1294	1572.45	0.000
N1295	1572.45	0.000
N1296	1572.41	0.000
N1297	1572.41	0.000
N1298	1572.49	0.000
N1299	1572.29	0.000
N1300	1572.29	0.000
N1301	1572.03	0.000
N1302	1572.12	0.000
N1303	1572.12	0.000
N1304	1572.22	0.000
N1305	1572.77	0.000
N1306	1572.77	0.000
N1307	1573.18	0.000
N1308	1573.44	0.000
N1309	1574.06	0.000
N1310	1574.06	0.000
N1311	1574.48	0.000
N1312	1574.76	0.000
N1313	1574.76	0.000
N1314	1575.42	0.000
N1315	1575.83	0.000
N1316	1575.83	0.000
N1317	1575.76	0.000
N1318	1575.88	0.000
N1319	1576.19	0.000
N1320	1575.55	0.000
N1321	1575.79	0.000
N1322	1575.68	0.000
N1323	1575.39	0.000
N1324	1575.39	0.000
N1325	1575.29	0.000
N1326	1575.06	0.000
N1327	1575.39	0.000
N1328	1575.62	0.000
N1329	1575.70	0.000
N1330	1575.77	0.000
N1331	1576.45	0.000
N1332	1577.67	0.000
N1333	1577.67	0.000
N1334	1579.54	0.000
N1335	1581.01	0.000
N1336	1581.22	0.000
N1337	1582.49	0.000
N1338	1583.76	0.000
N1339	1584.52	0.000
N1340	1585.65	0.000
N1341	1585.65	0.000
N1342	1586.50	0.000
N1343	1586.50	0.000
N1344	1587.20	0.000
N1345	1587.48	0.000
N1346	1587.90	0.000
N1347	1587.90	0.000
N1348	1588.25	0.000
N1349	1588.25	0.000
N1350	1588.16	0.000
N1351	1588.02	0.000
N1352	1588.27	0.000
N1353	1589.11	0.000
N1354	1588.52	0.000
N1355	1588.12	0.000
N1356	1588.87	0.000
N1357	1588.81	0.000
N1358	1588.55	0.000
N1359	1589.65	0.000
N1360	1589.07	0.000
N1361	1588.41	0.000
N1362	1589.75	0.000
N1363	1588.65	0.000
N1364	1589.37	0.000
N1365	1589.38	0.000
N1366	1589.37	0.000
N1367	1589.72	0.000
N1368	1589.30	0.000
N1369	1590.22	0.000
N1370	1589.58	0.000
N1371	1589.46	0.000
N1372	1589.25	0.000
N1373	1588.29	0.000
N1374	1588.32	0.000
N1375	1587.36	0.000
N1376	1587.29	0.000
N1377	1586.46	0.000
N1378	1585.24	0.000
N1379	1583.14	0.000
N1380	1584.38	0.000
N1381	1585.79	0.000
N1382	1586.54	0.000
N1383	1586.30	0.000
N1384	1587.46	0.000
N1385	1588.37	0.000
N1386	1588.34	0.000
N1387	1589.26	0.000
N1388	1590.24	0.000
N1389	1589.92	0.000
N1390	1590.30	0.000
N1391	1590.88	0.000
N1392	1590.50	0.000
N1393	1590.23	0.000
N1394	1590.67	0.000
N1395	1590.45	0.000
N1396	1590.23	0.000
N1397	1589.65	0.000
N1398	1589.15	0.000
N1399	1589.65	0.000
N1400	1588.67	0.000
N1401	1588.24	0.000
N1402	1588.14	0.000
N1403	1586.46	0.000
N1404	1587.06	0.000
N1405	1587.08	0.000
N1406	1585.89	0.000
N1407	1585.92	0.000
N1408	1584.89	0.000
N1409	1583.76	0.000
N1410	1583.36	0.000
N1411	1582.71	0.000
N1412	1582.29	0.000
N1413	1580.61	0.000
N1414	1580.00	0.000
N1415	1578.75	0.000
N1416	1577.47	0.000
N1417	1577.12	0.000
N1418	1575.31	0.000
N1419	1576.70	0.000
N1420	1576.60	0.000
N1421	1577.66	0.000
N1422	1578.60	0.000
N1423	1578.48	0.000
N1424	1579.49	0.000
N1425	1578.23	0.000
N1426	1578.88	0.000
N1427	1579.34	0.000
N1428	1578.94	0.000
N1429	1579.68	0.000
N1430	1578.72	0.000
N1431	1579.47	0.000
N1432	1578.85	0.000
N1433	1579.58	0.000
N1434	1578.50	0.000
N1435	1578.33	0.000
N1436	1577.87	0.000
N1437	1577.37	0.000
N1438	1577.01	0.000
N1439	1576.49	0.000
N1440	1576.24	0.000
N1441	1575.85	0.000
N1442	1575.70	0.000
N1443	1575.54	0.000
N1444	1574.77	0.000
N1445	1574.25	0.000
N1446	1573.59	0.000
N1447	1572.80	0.000
N1448	1571.75	0.000
N1449	1571.80	0.000
N1450	1570.14	0.000
N1451	1569.65	0.000
N1452	1568.41	0.000
N1453	1567.57	0.000
N1454	1566.44	0.000
N1455	1565.07	0.000
N1456	1563.73	0.000
N1457	1562.15	0.000
N1458	1562.14	0.000
N1459	1561.57	0.000
N1460	1564.38	0.000
N1461	1565.16	0.000
N1462	1565.87	0.000
N1463	1565.64	0.000
N1464	1565.43	0.000
N1465	1565.88	0.000
N1466	1568.24	0.000
N1467	1568.01	0.000
N1468	1568.94	0.000
N1469	1569.86	0.000
N1470	1570.30	0.000
N1471	1571.32	0.000
N1472	1570.12	0.000
N1473	1571.73	0.000
N1474	1572.00	0.000
N1475	1572.96	0.000
N1476	1573.53	0.000
N1477	1574.07	0.000
N1478	1573.90	0.000
N1479	1573.97	0.000
N1480	1574.87	0.000
N1481	1572.83	0.000
N1482	1575.05	0.000
N1483	1574.40	0.000
N1484	1576.10	0.000
N1485	1576.06	0.000
N1486	1576.20	0.000
N1487	1576.01	0.000
N1488	1577.36	0.000
N1489	1575.24	0.000
N1490	1575.44	0.000
N1491	1574.56	0.000
N1492	1575.26	0.000
N1493	1576.48	0.000
N1494	1577.46	0.000
N1495	1579.12	0.000
N1496	1580.15	0.000
N1497	1581.16	0.000
N1498	1580.67	0.000
N1499	1580.80	0.000
N1500	1580.62	0.000
N1501	1580.55	0.000
N1502	1581.38	0.000
N1503	1583.25	0.000
N1504	1584.27	0.000
N1505	1585.85	0.000
N1506	1587.50	0.000
N1507	1588.85	0.000
N1508	1591.05	0.000
N1509	1592.24	0.000
N1510	1593.39	0.000
N1511	1596.15	0.000
N1512	1594.68	0.000
N1513	1595.93	0.000
N1514	1596.36	0.000
N1515	1597.04	0.000
N1516	1597.97	0.000
N1517	1598.30	0.000
N1518	1598.93	0.000
N1519	1599.32	0.000
N1520	1599.86	0.000
N1521	1600.26	0.000
N1522	1600.60	0.000
N1523	1600.25	0.000
N1524	1600.35	0.000
N1525	1600.39	0.000
N1526	1600.71	0.000
N1527	1600.70	0.000
N1528	1601.45	0.000
N1529	1602.80	0.000
N1530	1602.88	0.000
N1531	1604.40	0.000
N1532	1605.05	0.000
N1533	1605.75	0.000
N1534	1606.62	0.000
N1535	1607.17	0.000
N1536	1608.45	0.000
N1537	1608.97	0.000
N1538	1609.97	0.000
N1539	1610.33	0.000
N1540	1611.07	0.000
N1541	1611.39	0.000
N1542	1612.26	0.000
N1543	1612.17	0.000
N1544	1612.57	0.000
N1545	1613.80	0.000
N1546	1614.60	0.000
N1547	1616.22	0.000
N1548	1616.10	0.000
N1549	1617.87	0.000
N1550	1619.90	0.000
N1551	1621.29	0.000
N1552	1622.72	0.000
N1553	1623.45	0.000
N1554	1624.71	0.000
N1555	1627.00	0.000
N1556	1628.17	0.000
N1557	1629.92	0.000
N1558	1632.02	0.000
N1559	1633.20	0.000
N1560	1634.63	0.000
N1561	1635.51	0.000
N1562	1637.04	0.000
N1563	1637.61	0.000
N1564	1638.76	0.000
N1565	1639.59	0.000
N1566	1640.58	0.000
N1567	1640.84	0.000
N1568	1641.85	0.000
N1569	1641.85	0.000
N1570	1642.69	0.000
N1571	1643.43	0.000
N1572	1643.44	0.000
N1573	1643.95	0.000
N1574	1644.50	0.000
N1575	1644.85	0.000
N1576	1645.06	0.000
N1577	1645.34	0.000
N1578	1645.99	0.000
N1579	1646.23	0.000
N1580	1646.88	0.000
N1581	1646.57	0.000
N1582	1647.00	0.000
N1583	1647.51	0.000
N1584	1647.85	0.000
N1585	1648.37	0.000
N1586	1649.09	0.000
N1587	1648.97	0.000
N1588	1649.22	0.000
N1589	1649.82	0.000
N1590	1650.26	0.000
N1591	1650.35	0.000
N1592	1650.75	0.000
N1593	1651.11	0.000
N1594	1651.60	0.000
N1595	1651.80	0.000
N1596	1652.05	0.000
N1597	1652.54	0.000
N1598	1652.93	0.000
N1599	1653.77	0.000
N1600	1655.13	0.000
N1601	1655.27	0.000
N1602	1655.88	0.000
N1603	1657.08	0.000
N1604	1657.90	0.000
N1605	1658.51	0.000
N1606	1658.91	0.000
N1607	1659.09	0.000
N1608	1659.88	0.000
N1609	1660.55	0.000
N1610	1662.17	0.000
N1611	1662.42	0.000
N1612	1663.27	0.000
N1613	1664.29	0.000
N1614	1664.61	0.000
N1615	1665.69	0.000
N1616	1665.96	0.000
N1617	1666.75	0.000
N1618	1667.80	0.000
N1619	1668.65	0.000
N1620	1669.53	0.000
N1621	1670.32	0.000
N1622	1670.78	0.000
N1623	1671.69	0.000
N1624	1672.55	0.000
N1625	1672.95	0.000
N1626	1673.77	0.000
N1627	1674.73	0.000
N1628	1675.09	0.000
N1629	1675.58	0.000
N1630	1676.51	0.000
N1631	1677.45	0.000
N1632	1677.81	0.000
N1633	1678.86	0.000
N1634	1679.14	0.000
N1635	1679.84	0.000
N1636	1680.48	0.000
N1637	1680.98	0.000
N1638	1681.38	0.000
N1639	1682.19	0.000
N1640	1683.30	0.000
N1641	1684.06	0.000
N1642	1682.87	0.000
N1643	1682.89	0.000
N1644	1682.74	0.000
N1645	1684.26	0.000
N1646	1683.56	0.000
N1647	1684.36	0.000
N1648	1683.19	0.000
N1649	1683.32	0.000
N1650	1683.49	0.000
N1651	1683.39	0.000
N1652	1683.66	0.000
N1653	1683.19	0.000
N1654	1684.79	0.000
N1655	1683.81	0.000
N1656	1684.02	0.000
N1657	1683.17	0.000
N1658	1684.65	0.000
N1659	1684.11	0.000
N1660	1683.53	0.000
N1661	1684.18	0.000
N1662	1684.36	0.000
N1663	1684.81	0.000
N1664	1685.36	0.000
N1665	1685.47	0.000
N1666	1685.72	0.000
N1667	1686.13	0.000
N1668	1686.17	0.000
N1669	1686.07	0.000
N1670	1687.71	0.000
N1671	1687.75	0.000
N1672	1688.23	0.000
N1673	1688.81	0.000
N1674	1689.05	0.000
N1675	1689.43	0.000
N1676	1689.93	0.000
N1677	1690.26	0.000
N1678	1690.81	0.000
N1679	1690.94	0.000
N1680	1691.52	0.000
N1681	1691.78	0.000
N1682	1692.27	0.000
N1683	1692.92	0.000
N1684	1693.16	0.000
N1685	1693.61	0.000
N1686	1694.36	0.000
N1687	1694.34	0.000
N1688	1694.46	0.000
N1689	1694.77	0.000
N1690	1694.99	0.000
N1691	1695.48	0.000
N1692	1695.75	0.000
N1693	1695.99	0.000
N1694	1696.11	0.000
N1695	1696.41	0.000
N1696	1696.14	0.000
N1697	1696.28	0.000
N1698	1696.24	0.000
N1699	1696.52	0.000
N1700	1696.39	0.000
N1701	1696.14	0.000
N1702	1696.12	0.000
N1703	1696.03	0.000
N1704	1695.60	0.000
N1705	1695.59	0.000
N1706	1694.51	0.000
N1707	1694.78	0.000
N1708	1694.36	0.000
N1709	1694.21	0.000
N1710	1693.71	0.000
N1711	1693.31	0.000
N1712	1692.86	0.000
N1713	1692.59	0.000
N1714	1691.91	0.000
N1715	1691.41	0.000
N1716	1691.09	0.000
N1717	1690.14	0.000
N1718	1689.91	0.000
N1719	1689.21	0.000
N1720	1689.00	0.000
N1721	1688.27	0.000
N1722	1688.20	0.000
N1723	1687.54	0.000
N1724	1686.96	0.000
N1725	1686.92	0.000
N1726	1686.31	0.000
N1727	1686.10	0.000
N1728	1685.99	0.000
N1729	1685.50	0.000
N1730	1685.43	0.000
N1731	1685.69	0.000
N1732	1685.35	0.000
N1733	1684.98	0.000
N1734	1684.88	0.000
N1735	1685.06	0.000
N1736	1684.63	0.000
N1737	1684.77	0.000
N1738	1684.76	0.000
N1739	1685.04	0.000
N1740	1684.88	0.000
N1741	1685.30	0.000
N1742	1685.02	0.000
N1743	1685.60	0.000
N1744	1685.62	0.000
N1745	1685.89	0.000
N1746	1686.03	0.000
N1747	1686.14	0.000
N1748	1686.36	0.000
N1749	1686.43	0.000
N1750	1687.26	0.000
N1751	1687.18	0.000
N1752	1687.07	0.000
N1753	1687.25	0.000
N1754	1687.32	0.000
N1755	1687.60	0.000
N1756	1687.99	0.000
N1757	1688.06	0.000
N1758	1688.29	0.000
N1759	1688.58	0.000
N1760	1689.26	0.000
N1761	1689.38	0.000
N1762	1689.18	0.000
N1763	1689.09	0.000
N1764	1689.57	0.000
N1765	1689.73	0.000
N1766	1689.54	0.000
N1767	1689.63	0.000
N1768	1689.65	0.000
N1769	1689.68	0.000
N1770	1689.44	0.000
N1771	1689.14	0.000
N1772	1689.08	0.000
N1773	1688.44	0.000
N1774	1688.44	0.000
N1775	1688.23	0.000
N1776	1687.66	0.000
N1777	1688.15	0.000
N1778	1687.43	0.000
N1779	1687.43	0.000
N1780	1686.98	0.000
N1781	1686.98	0.000
N1782	1686.25	0.000
N1783	1686.03	0.000
N1784	1684.88	0.000
N1785	1684.47	0.000
N1786	1684.82	0.000
N1787	1683.14	0.000
N1788	1682.05	0.000
N1789	1681.70	0.000
N1790	1680.60	0.000
N1791	1679.66	0.000
N1792	1678.14	0.000
N1793	1677.57	0.000
N1794	1675.18	0.000
N1795	1675.18	0.000
N1796	1671.17	0.000
N1797	1670.96	0.000
N1798	1667.40	0.000
N1799	1667.46	0.000
N1800	1667.46	0.000
N1801	1662.20	0.000
N1802	1662.21	0.000
N1803	1661.87	0.000
N1804	1661.06	0.000
N1805	1661.06	0.000
N1806	1660.56	0.000
N1807	1659.50	0.000
N1808	1659.50	0.000
N1809	1659.27	0.000
N1810	1657.44	0.000
N1811	1658.29	0.000
N1812	1656.91	0.000
N1813	1654.66	0.000
N1814	1653.47	0.000
N1815	1651.68	0.000
N1816	1650.15	0.000
N1817	1651.45	0.000
N1818	1653.14	0.000
N1819	1655.62	0.000
N1820	1655.67	0.000
N1821	1658.74	0.000
N1822	1659.36	0.000
N1823	1660.96	0.000
N1824	1663.70	0.000
N1825	1662.54	0.000
N1826	1661.84	0.000
N1827	1661.56	0.000
N1828	1662.03	0.000
N1829	1661.38	0.000
N1830	1660.38	0.000
N1831	1662.44	0.000
N1832	1660.06	0.000
N1833	1661.23	0.000
N1834	1659.51	0.000
N1835	1657.44	0.000
N1836	1657.01	0.000
N1837	1652.67	0.000
N1838	1655.73	0.000
N1839	1660.65	0.000
N1840	1663.55	0.000
N1841	1665.55	0.000
N1842	1668.71	0.000
N1843	1669.18	0.000
N1844	1673.28	0.000
N1845	1675.74	0.000
N1846	1678.47	0.000
N1847	1678.47	0.000
N1848	1683.03	0.000
N1849	1685.35	0.000
N1850	1685.94	0.000
N1851	1687.86	0.000
N1852	1689.81	0.000
N1853	1692.14	0.000
N1854	1692.79	0.000
N1855	1692.77	0.000
N1856	1693.23	0.000
N1857	1694.06	0.000
N1858	1694.38	0.000
N1859	1694.41	0.000
N1860	1694.37	0.000
N1861	1694.84	0.000
N1862	1694.93	0.000
N1863	1694.93	0.000
N1864	1694.61	0.000
N1865	1694.97	0.000
N1866	1694.64	0.000
N1867	1695.28	0.000
N1868	1695.27	0.000
N1869	1695.37	0.000
N1870	1695.50	0.000
N1871	1695.35	0.000
N1872	1695.75	0.000
N1873	1695.79	0.000
N1874	1695.89	0.000
N1875	1696.23	0.000
N1876	1696.92	0.000
N1877	1697.27	0.000
N1878	1697.27	0.000
N1879	1697.54	0.000
N1880	1697.72	0.000
N1881	1698.74	0.000
N1882	1698.68	0.000
N1883	1698.93	0.000
N1884	1699.58	0.000
N1885	1699.85	0.000
N1886	1700.43	0.000
N1887	1701.31	0.000
N1888	1701.53	0.000
N1889	1701.72	0.000
N1890	1702.03	0.000
N1891	1702.18	0.000
N1892	1702.18	0.000
N1893	1703.50	0.000
N1894	1704.10	0.000
N1895	1704.22	0.000
N1896	1704.55	0.000
N1897	1705.63	0.000
N1898	1706.68	0.000
N1899	1707.58	0.000
N1900	1708.45	0.000
N1901	1708.64	0.000
N1902	1709.18	0.000
N1903	1709.55	0.000
N1904	1709.77	0.000
N1905	1709.96	0.000
N1906	1710.04	0.000
N1907	1709.86	0.000
N1908	1709.06	0.000
N1909	1708.07	0.000
N1910	1708.02	0.000
N1911	1706.72	0.000
N1912	1706.81	0.000
N1913	1705.58	0.000
N1914	1705.58	0.000
N1915	1705.06	0.000
N1916	1704.12	0.000
N1917	1703.83	0.000
N1918	1702.64	0.000
N1919	1702.39	0.000
N1920	1701.53	0.000
N1921	1700.91	0.000
N1922	1700.39	0.000
N1923	1699.82	0.000
N1924	1699.12	0.000
N1925	1698.48	0.000
N1926	1697.91	0.000
N1927	1697.74	0.000
N1928	1696.94	0.000
N1929	1696.44	0.000
N1930	1696.02	0.000
N1931	1695.72	0.000
N1932	1696.06	0.000
N1933	1696.06	0.000
N1934	1694.33	0.000
N1935	1693.96	0.000
N1936	1693.43	0.000
N1937	1693.09	0.000
N1938	1693.09	0.000
N1939	1692.76	0.000
N1940	1692.62	0.000
N1941	1692.32	0.000
N1942	1692.52	0.000
N1943	1691.63	0.000
N1944	1692.67	0.000
N1945	1691.84	0.000
N1946	1691.41	0.000
N1947	1691.39	0.000
N1948	1691.19	0.000
N1949	1690.67	0.000
N1950	1690.75	0.000
N1951	1690.72	0.000
N1952	1690.50	0.000
N1953	1690.50	0.000
N1954	1690.35	0.000
N1955	1690.45	0.000
N1956	1690.40	0.000
N1957	1690.26	0.000
N1958	1689.45	0.000
N1959	1689.45	0.000
N1960	1688.98	0.000
N1961	1688.98	0.000
N1962	1688.94	0.000
N1963	1688.68	0.000
N1964	1688.02	0.000
N1965	1687.62	0.000
N1966	1687.70	0.000
N1967	1687.44	0.000
N1968	1687.44	0.000
N1969	1686.79	0.000
N1970	1686.79	0.000
N1971	1686.24	0.000
N1972	1686.24	0.000
N1973	1685.57	0.000
N1974	1685.57	0.000
N1975	1685.40	0.000
N1976	1685.40	0.000
N1977	1684.75	0.000
N1978	1684.75	0.000
N1979	1684.58	0.000
N1980	1684.36	0.000
N1981	1684.00	0.000
N1982	1683.96	0.000
N1983	1683.63	0.000
N1984	1683.54	0.000
N1985	1683.97	0.000
N1986	1683.53	0.000
N1987	1683.34	0.000
N1988	1683.16	0.000
N1989	1682.58	0.000
N1990	1682.58	0.000
N1991	1682.47	0.000
N1992	1682.40	0.000
N1993	1682.17	0.000
N1994	1682.09	0.000
N1995	1682.11	0.000
N1996	1681.65	0.000
N1997	1681.65	0.000
N1998	1681.79	0.000
N1999	1681.69	0.000
N2000	1681.69	0.000
N2001	1682.26	0.000
N2002	1682.51	0.000
N2003	1682.71	0.000
N2004	1682.99	0.000
N2005	1682.99	0.000
N2006	1685.01	0.000
N2007	1685.41	0.000
N2008	1686.79	0.000
N2009	1686.31	0.000
N2010	1687.39	0.000
N2011	1687.76	0.000
N2012	1688.36	0.000
N2013	1689.02	0.000
N2014	1689.07	0.000
N2015	1689.55	0.000
N2016	1689.55	0.000
N2017	1691.43	0.000
N2018	1691.87	0.000
N2019	1693.27	0.000
N2020	1694.07	0.000
N2021	1694.48	0.000
N2022	1695.48	0.000
N2023	1695.90	0.000
N2024	1696.00	0.000
N2025	1696.93	0.000
N2026	1696.58	0.000
N2027	1697.53	0.000
N2028	1698.01	0.000
N2029	1697.72	0.000
N2030	1698.25	0.000
N2031	1698.23	0.000
N2032	1698.10	0.000
N2033	1698.18	0.000
N2034	1698.18	0.000
N2035	1697.55	0.000
N2036	1698.27	0.000
N2037	1696.77	0.000
N2038	1696.71	0.000
N2039	1695.62	0.000
N2040	1695.62	0.000
N2041	1695.37	0.000
N2042	1694.62	0.000
N2043	1694.89	0.000
N2044	1694.74	0.000
N2045	1695.09	0.000
N2046	1695.09	0.000
N2047	1694.99	0.000
N2048	1695.20	0.000
N2049	1695.68	0.000
N2050	1695.60	0.000
N2051	1695.51	0.000
N2052	1695.89	0.000
N2053	1695.70	0.000
N2054	1695.59	0.000
N2055	1695.77	0.000
N2056	1695.67	0.000
N2057	1695.97	0.000
N2058	1696.30	0.000
N2059	1696.01	0.000
N2060	1696.30	0.000
N2061	1696.06	0.000
N2062	1695.92	0.000
N2063	1695.95	0.000
N2064	1695.95	0.000
N2065	1695.80	0.000
N2066	1696.37	0.000
N2067	1695.56	0.000
N2068	1695.53	0.000
N2069	1695.53	0.000
N2070	1696.20	0.000
N2071	1696.15	0.000
N2072	1694.85	0.000
N2073	1695.33	0.000
N2074	1695.95	0.000
N2075	1696.58	0.000
N2076	1696.64	0.000
N2077	1696.02	0.000
N2078	1696.02	0.000
N2079	1696.09	0.000
N2080	1696.72	0.000
N2081	1696.01	0.000
N2082	1696.82	0.000
N2083	1697.08	0.000
N2084	1697.02	0.000
N2085	1697.17	0.000
N2086	1697.46	0.000
N2087	1697.21	0.000
N2088	1697.75	0.000
N2089	1697.38	0.000
N2090	1697.69	0.000
N2091	1697.79	0.000
N2092	1697.81	0.000
N2093	1697.80	0.000
N2094	1697.62	0.000
N2095	1697.62	0.000
N2096	1697.23	0.000
N2097	1696.90	0.000
N2098	1696.90	0.000
N2099	1696.89	0.000
N2100	1697.23	0.000
N2101	1697.19	0.000
N2102	1697.05	0.000
N2103	1696.46	0.000
N2104	1696.28	0.000
N2105	1696.05	0.000
N2106	1695.68	0.000
N2107	1696.85	0.000
N2108	1696.35	0.000
N2109	1694.95	0.000
N2110	1695.04	0.000
N2111	1695.22	0.000
N2112	1694.46	0.000
N2113	1693.54	0.000
N2114	1693.54	0.000
N2115	1693.63	0.000
N2116	1693.63	0.000
N2117	1693.37	0.000
N2118	1692.36	0.000
N2119	1693.42	0.000
N2120	1691.64	0.000
N2121	1691.56	0.000
N2122	1690.92	0.000
N2123	1691.10	0.000
N2124	1690.99	0.000
N2125	1691.09	0.000
N2126	1690.63	0.000
N2127	1690.74	0.000
N2128	1690.65	0.000
N2129	1690.91	0.000
N2130	1690.39	0.000
N2131	1690.95	0.000
N2132	1690.95	0.000
N2133	1691.56	0.000
N2134	1691.82	0.000
N2135	1692.15	0.000
N2136	1692.33	0.000
N2137	1692.73	0.000
N2138	1692.79	0.000
N2139	1694.08	0.000
N2140	1694.19	0.000
N2141	1694.71	0.000
N2142	1695.68	0.000
N2143	1696.14	0.000
N2144	1696.89	0.000
N2145	1697.06	0.000
N2146	1697.59	0.000
N2147	1697.77	0.000
N2148	1698.10	0.000
N2149	1698.29	0.000
N2150	1698.63	0.000
N2151	1698.67	0.000
N2152	1698.67	0.000
N2153	1698.90	0.000
N2154	1699.07	0.000
N2155	1698.36	0.000
N2157	1699.18	0.000
N2159	1699.60	0.000
N2160	1699.43	0.000
N2161	1699.43	0.000
N2162	1699.49	0.000
UHURU_PARK_GBR_IN	1697.30	0.000
UHURU_PARK_GBR_VD	1697.30	0.000
TUNDUMA_ESR_IN	1703.50	0.000
TUNDUMA_ESR_VD	1703.50	0.000
UHURU_GSR01_IN	1698.40	0.000
UHURU_GSR01_VD	1698.40	0.000
IPITO_GSR02_IN	1681.20	0.000
IPITO_GSR02_VD	1681.20	0.000
N2165	1699.50	0.000
N2166	1699.39	0.000
N2167	1699.45	0.000
N2168	1699.32	0.000
N2169	1693.93	0.000
N2170	1685.01	0.000
N2171	1680.09	0.000
N2172	1682.41	0.000
N2173	1681.73	0.000
N2174	1679.04	0.000
N2175	1675.96	0.000
N2176	1673.81	0.000
N2177	1672.73	0.000
N2178	1671.50	0.000
N2179	1670.35	0.000
N2180	1669.35	0.000
N2181	1669.23	0.000
N2182	1669.51	0.000
N2183	1669.95	0.000
N2184	1669.65	0.000
N2185	1669.80	0.000
N2186	1669.49	0.000
N2187	1668.84	0.000
N2188	1668.49	0.000
N2189	1668.45	0.000
N2190	1668.80	0.000
N2191	1669.31	0.000
N2192	1669.11	0.000
N2193	1669.87	0.000
N2194	1669.30	0.000
N2195	1670.03	0.000
N2196	1670.53	0.000
N2197	1669.77	0.000
N2198	1667.42	0.000
N2199	1666.80	0.000
N2200	1665.74	0.000
N2201	1664.90	0.000
N2202	1662.33	0.000
N2203	1658.49	0.000
N2204	1654.27	0.000
N2205	1651.90	0.000
N2206	1648.95	0.000
N2207	1645.98	0.000
N2208	1642.84	0.000
N2209	1639.88	0.000
N2210	1637.60	0.000
N2211	1632.79	0.000
N2212	1629.07	0.000
N2213	1626.04	0.000
N2214	1622.91	0.000
N2215	1617.27	0.000
N2216	1613.55	0.000
N2217	1608.53	0.000
N2218	1605.94	0.000
N2219	1605.36	0.000
N2220	1604.81	0.000
N2221	1606.17	0.000
N2222	1606.52	0.000
N2223	1606.54	0.000
N2224	1606.96	0.000
N2225	1609.35	0.000
N2226	1610.13	0.000
N2227	1611.18	0.000
N2228	1611.45	0.000
N2229	1607.28	0.000
N2230	1603.64	0.000
N2231	1606.93	0.000
N2232	1610.66	0.000
N2233	1613.69	0.000
N2234	1613.59	0.000
N2235	1613.36	0.000
N2236	1612.62	0.000
N2237	1618.81	0.000
N2238	1625.04	0.000
N2239	1628.49	0.000
N2240	1634.14	0.000
N2241	1636.75	0.000
N2242	1640.56	0.000
N2243	1645.45	0.000
N2244	1652.18	0.000
N2245	1657.81	0.000
N2246	1668.81	0.000
N2247	1676.83	0.000
N2248	1679.38	0.000
N2249	1684.62	0.000
N2252	1699.05	0.000
N2253	1698.85	0.000
N2254	1699.12	0.000
N2255	1699.52	0.000
N2256	1697.64	0.000
N2257	1691.16	0.000
N2258	1688.29	0.000
N2259	1685.26	0.000
N2260	1682.85	0.000
N2261	1679.71	0.000
N2262	1676.76	0.000
N2263	1674.36	0.000
N2264	1670.92	0.000
N2265	1668.95	0.000
N2266	1665.91	0.000
N2267	1663.08	0.000
N2268	1660.12	0.000
N2269	1656.85	0.000
N2270	1653.52	0.000
N2271	1650.16	0.000
N2272	1646.97	0.000
N2273	1644.55	0.000
N2274	1641.32	0.000
N2275	1639.86	0.000
N2276	1637.92	0.000
N2277	1636.53	0.000
N2278	1635.37	0.000
N2279	1634.52	0.000
N2280	1633.93	0.000
MAKAMBINI_GSR03_IN	1655.70	0.000
MAKAMBINI_GSR03_VD	1655.70	0.000
CHAPWA_GSR04_IN	1521.40	0.000
CHAPWA_GSR04_VD	1521.40	0.000
N2282	1628.93	0.000
N2283	1627.22	0.000
N2284	1626.03	0.000
N2285	1626.06	0.000
N2286	1625.26	0.000
N2287	1621.68	0.000
N2288	1619.86	0.000
N2289	1616.72	0.000
N2290	1613.61	0.000
N2291	1610.18	0.000
N2292	1606.37	0.000
N2293	1602.64	0.000
N2294	1599.82	0.000
N2295	1595.87	0.000
N2296	1592.46	0.000
N2297	1590.45	0.000
N2298	1586.91	0.000
N2299	1584.03	0.000
N2300	1581.45	0.000
N2301	1578.02	0.000
N2302	1575.98	0.000
N2303	1571.53	0.000
N2304	1568.19	0.000
N2305	1565.59	0.000
N2306	1564.62	0.000
N2307	1563.07	0.000
N2308	1562.57	0.000
N2309	1562.56	0.000
N2310	1561.98	0.000
N2311	1562.95	0.000
N2312	1562.88	0.000
N2313	1563.49	0.000
N2314	1562.15	0.000
N2315	1561.43	0.000
N2316	1562.33	0.000
N2317	1563.91	0.000
N2318	1564.17	0.000
N2319	1562.44	0.000
N2320	1560.75	0.000
N2321	1558.07	0.000
N2322	1553.44	0.000
N2323	1552.39	0.000
N2324	1553.20	0.000
N2325	1554.04	0.000
N2326	1558.94	0.000
N2327	1560.76	0.000
N2328	1560.21	0.000
N2329	1557.67	0.000
N2330	1554.32	0.000
N2331	1552.01	0.000
N2332	1546.35	0.000
N2333	1542.67	0.000
N2334	1536.03	0.000
N2335	1530.88	0.000
N2336	1525.37	0.000
N2337	1523.93	0.000

[RESERVOIRS]
;ID	Head
MOMBA_RIVER	1361.00

[TANKS]
;ID	Elevation	InitLevel	MinLevel	MaxLevel	Diameter	MinVol
GRIT_TANK	1366.00	0.55	0.50	2.00	17.84	0
MOMBA_WTP_INLET	1378.00	1.00	0.00	1.50	20.00	0
MOMBA_WTP_CWT	1368.00	0.55	0.50	5.00	31.92	0
IKANA_GBR	1663.00	4.95	0.30	5.00	27.64	0
NKANGAMO_BPS	1552.50	0.55	0.50	4.50	23.79	0
UHURU_PARK_GBR	1697.30	4.95	0.30	5.00	35.68	0
TUNDUMA_ESR	1703.50	2.95	0.00	3.00	7.14	0
UHURU_GSR01	1698.40	2.95	0.00	3.00	14.57	0
IPITO_GSR02	1681.20	2.95	0.00	3.00	9.21	0
MAKAMBINI_GSR03	1655.70	2.95	0.00	3.00	9.21	0
CHAPWA_GSR04	1521.40	2.95	0.00	3.00	9.21	0

[PIPES]
;ID	Node1	Node2	Length	Diameter	Roughness	MinorLoss	Status
MOMBA_INTAKE_STATION	MOMBA_INTAKE_PS	MOMBA_INTAKE_DIS	5.00	600	140	63.82	Open
GRIT_TANK_STATION	GRIT_TANK_PS	GRIT_TANK_DIS	5.00	600	140	63.82	Open
MOMBA_WTP_STATION	MOMBA_WTP_PS	MOMBA_WTP_DIS	5.00	600	140	73.79	Open
NKANGAMO_BPS_STATION	NKANGAMO_BPS_PS	NKANGAMO_BPS_DIS	5.00	600	140	73.79	Open
UHURU_PARK_GBR_OUT	UHURU_PARK_GBR	UHURU_PARK_GBR_DIST	10.00	500	130	0.0	Open
TUNDUMA_ESR_OUT	TUNDUMA_ESR	TUNDUMA_ESR_DIST	10.00	100	130	0.0	Open
UHURU_GSR01_OUT	UHURU_GSR01	UHURU_GSR01_DIST	10.00	150	130	0.0	Open
IPITO_GSR02_OUT	IPITO_GSR02	IPITO_GSR02_DIST	10.00	100	130	0.0	Open
MAKAMBINI_GSR03_OUT	MAKAMBINI_GSR03	MAKAMBINI_GSR03_DIST	10.00	100	130	0.0	Open
CHAPWA_GSR04_OUT	CHAPWA_GSR04	CHAPWA_GSR04_DIST	10.00	100	130	0.0	Open
ABSTRACTION	MOMBA_RIVER	MOMBA_INTAKE	100.00	600	114.0	0.0	Open
LL_DELIVERY	MOMBA_INTAKE_DIS	GRIT_TANK	30.00	600	114.0	0.0	Open
P0001	GRIT_TANK_DIS	N0002	129.83	600	114.0	0.0	Open
P0002	N0002	N0003	50.00	600	114.0	0.0	Open
P0003	N0003	N0004	50.00	600	114.0	0.0	Open
P0004	N0004	N0005	50.00	600	114.0	0.0	Open
P0005	N0005	N0006	50.00	600	114.0	0.0	Open
P0006	N0006	N0007	50.01	600	114.0	0.0	Open
P0007	N0007	N0008	50.01	600	114.0	0.0	Open
P0008	N0008	N0009	50.03	600	114.0	0.0	Open
P0009	N0009	N0010	50.01	600	114.0	0.0	Open
P0010	N0010	N0011	48.56	600	114.0	0.0	Open
P0011	N0011	N0012	50.00	600	114.0	0.0	Open
P0012	N0012	N0013	50.00	600	114.0	0.0	Open
P0013	N0013	N0014	50.00	600	114.0	0.0	Open
P0014	N0014	N0015	50.00	600	114.0	0.0	Open
P0015	N0015	N0016	50.00	600	114.0	0.0	Open
P0016	N0016	N0017	50.00	600	114.0	0.0	Open
P0017	N0017	N0018	50.00	600	114.0	0.0	Open
P0018	N0018	N0019	50.00	600	114.0	0.0	Open
P0019	N0019	N0020	50.00	600	114.0	0.0	Open
P0020	N0020	MOMBA_WTP_INLET	50.00	600	114.0	0.0	Open
P0021	MOMBA_WTP_DIS	N0022	50.01	600	114.0	0.0	Open
P0022	N0022	N0023	50.01	600	114.0	0.0	Open
P0023	N0023	N0024	50.01	600	114.0	0.0	Open
P0024	N0024	N0025	50.01	600	114.0	0.0	Open
P0025	N0025	N0026	50.01	600	114.0	0.0	Open
P0026	N0026	N0027	50.03	600	114.0	0.0	Open
P0027	N0027	N0028	50.01	600	114.0	0.0	Open
P0028	N0028	N0029	50.03	600	114.0	0.0	Open
P0029	N0029	N0030	50.03	600	114.0	0.0	Open
P0030	N0030	N0031	50.01	600	114.0	0.0	Open
P0031	N0031	N0032	50.03	600	114.0	0.0	Open
P0032	N0032	N0033	50.02	600	114.0	0.0	Open
P0033	N0033	N0034	50.01	600	114.0	0.0	Open
P0034	N0034	N0035	50.01	600	114.0	0.0	Open
P0035	N0035	N0036	50.01	600	114.0	0.0	Open
P0036	N0036	N0037	50.00	600	114.0	0.0	Open
P0037	N0037	N0038	50.00	600	114.0	0.0	Open
P0038	N0038	N0039	50.00	600	114.0	0.0	Open
P0039	N0039	N0040	50.00	600	114.0	0.0	Open
P0040	N0040	N0041	50.00	600	114.0	0.0	Open
P0041	N0041	N0042	50.00	600	114.0	0.0	Open
P0042	N0042	N0043	50.01	600	114.0	0.0	Open
P0043	N0043	N0044	50.00	600	114.0	0.0	Open
P0044	N0044	N0045	50.00	600	114.0	0.0	Open
P0045	N0045	N0046	50.00	600	114.0	0.0	Open
P0046	N0046	N0047	50.01	600	114.0	0.0	Open
P0047	N0047	N0048	50.01	600	114.0	0.0	Open
P0048	N0048	N0049	50.02	600	114.0	0.0	Open
P0049	N0049	N0050	50.02	600	114.0	0.0	Open
P0050	N0050	N0051	50.03	600	114.0	0.0	Open
P0051	N0051	N0052	50.04	600	114.0	0.0	Open
P0052	N0052	N0053	50.02	600	114.0	0.0	Open
P0053	N0053	N0054	50.01	600	114.0	0.0	Open
P0054	N0054	N0055	50.01	600	114.0	0.0	Open
P0055	N0055	N0056	50.01	600	114.0	0.0	Open
P0056	N0056	N0057	50.00	600	114.0	0.0	Open
P0057	N0057	N0058	50.02	600	114.0	0.0	Open
P0058	N0058	N0059	36.19	600	114.0	0.0	Open
P0059	N0059	N0060	50.00	600	114.0	0.0	Open
P0060	N0060	N0061	50.03	600	114.0	0.0	Open
P0061	N0061	N0062	50.00	600	114.0	0.0	Open
P0062	N0062	N0063	50.02	600	114.0	0.0	Open
P0063	N0063	N0064	50.02	600	114.0	0.0	Open
P0064	N0064	N0065	50.03	600	114.0	0.0	Open
P0065	N0065	N0066	49.98	600	114.0	0.0	Open
P0066	N0066	N0068	102.46	600	114.0	0.0	Open
P0067	N0068	N0069	50.00	600	114.0	0.0	Open
P0068	N0069	N0070	50.09	600	114.0	0.0	Open
P0069	N0070	N0071	50.00	600	114.0	0.0	Open
P0070	N0071	N0072	50.00	600	114.0	0.0	Open
P0071	N0072	N0073	50.00	600	114.0	0.0	Open
P0072	N0073	N0074	37.46	600	114.0	0.0	Open
P0073	N0074	N0075	50.01	600	114.0	0.0	Open
P0074	N0075	N0076	50.00	600	114.0	0.0	Open
P0075	N0076	N0077	50.01	600	114.0	0.0	Open
P0076	N0077	N0078	50.00	600	114.0	0.0	Open
P0077	N0078	N0079	50.01	600	114.0	0.0	Open
P0078	N0079	N0080	50.00	600	114.0	0.0	Open
P0079	N0080	N0081	50.00	600	114.0	0.0	Open
P0080	N0081	N0082	50.00	600	114.0	0.0	Open
P0081	N0082	N0083	50.01	600	114.0	0.0	Open
P0082	N0083	N0084	50.01	600	114.0	0.0	Open
P0083	N0084	N0085	50.01	600	114.0	0.0	Open
P0084	N0085	N0086	50.00	600	114.0	0.0	Open
P0085	N0086	N0087	50.00	600	114.0	0.0	Open
P0086	N0087	N0088	50.01	600	114.0	0.0	Open
P0087	N0088	N0089	50.00	600	114.0	0.0	Open
P0088	N0089	N0090	50.00	600	114.0	0.0	Open
P0089	N0090	N0091	50.01	600	114.0	0.0	Open
P0090	N0091	N0092	50.00	600	114.0	0.0	Open
P0091	N0092	N0093	49.34	600	114.0	0.0	Open
P0092	N0093	N0094	50.00	600	114.0	0.0	Open
P0093	N0094	N0095	50.00	600	114.0	0.0	Open
P0094	N0095	N0096	50.00	600	114.0	0.0	Open
P0095	N0096	N0097	50.00	600	114.0	0.0	Open
P0096	N0097	N0098	50.00	600	114.0	0.0	Open
P0097	N0098	N0099	50.01	600	114.0	0.0	Open
P0098	N0099	N0100	50.00	600	114.0	0.0	Open
P0099	N0100	N0101	50.01	600	114.0	0.0	Open
P0100	N0101	N0102	50.01	600	114.0	0.0	Open
P0101	N0102	N0103	50.01	600	114.0	0.0	Open
P0102	N0103	N0104	50.00	600	114.0	0.0	Open
P0103	N0104	N0105	50.02	600	114.0	0.0	Open
P0104	N0105	N0106	50.01	600	114.0	0.0	Open
P0105	N0106	N0107	50.00	600	114.0	0.0	Open
P0106	N0107	N0108	50.01	600	114.0	0.0	Open
P0107	N0108	N0109	50.00	600	114.0	0.0	Open
P0108	N0109	N0110	50.00	600	114.0	0.0	Open
P0109	N0110	N0111	50.00	600	114.0	0.0	Open
P0110	N0111	N0112	50.00	600	114.0	0.0	Open
P0111	N0112	N0113	50.00	600	114.0	0.0	Open
P0112	N0113	N0114	50.00	600	114.0	0.0	Open
P0113	N0114	N0115	50.00	600	114.0	0.0	Open
P0114	N0115	N0116	50.00	600	114.0	0.0	Open
P0115	N0116	N0117	50.00	600	114.0	0.0	Open
P0116	N0117	N0118	50.01	600	114.0	0.0	Open
P0117	N0118	N0119	50.01	600	114.0	0.0	Open
P0118	N0119	N0120	50.00	600	114.0	0.0	Open
P0119	N0120	N0121	50.00	600	114.0	0.0	Open
P0120	N0121	N0122	50.00	600	114.0	0.0	Open
P0121	N0122	N0123	50.00	600	114.0	0.0	Open
P0122	N0123	N0124	50.00	600	114.0	0.0	Open
P0123	N0124	N0125	50.00	600	114.0	0.0	Open
P0124	N0125	N0126	50.00	600	114.0	0.0	Open
P0125	N0126	N0127	50.00	600	114.0	0.0	Open
P0126	N0127	N0128	50.01	600	114.0	0.0	Open
P0127	N0128	N0129	50.00	600	114.0	0.0	Open
P0128	N0129	N0130	50.00	600	114.0	0.0	Open
P0129	N0130	N0131	50.00	600	114.0	0.0	Open
P0130	N0131	N0132	50.00	600	114.0	0.0	Open
P0131	N0132	N0133	50.00	600	114.0	0.0	Open
P0132	N0133	N0134	50.00	600	114.0	0.0	Open
P0133	N0134	N0135	50.01	600	114.0	0.0	Open
P0134	N0135	N0136	50.01	600	114.0	0.0	Open
P0135	N0136	N0137	50.00	600	114.0	0.0	Open
P0136	N0137	N0138	50.01	600	114.0	0.0	Open
P0137	N0138	N0139	50.00	600	114.0	0.0	Open
P0138	N0139	N0140	50.01	600	114.0	0.0	Open
P0139	N0140	N0141	50.00	600	114.0	0.0	Open
P0140	N0141	N0142	50.03	600	114.0	0.0	Open
P0141	N0142	N0143	50.00	600	114.0	0.0	Open
P0142	N0143	N0144	50.00	600	114.0	0.0	Open
P0143	N0144	N0145	50.01	600	114.0	0.0	Open
P0144	N0145	N0146	50.00	600	114.0	0.0	Open
P0145	N0146	N0147	50.00	600	114.0	0.0	Open
P0146	N0147	N0148	50.01	600	114.0	0.0	Open
P0147	N0148	N0149	50.00	600	114.0	0.0	Open
P0148	N0149	N0150	50.00	600	114.0	0.0	Open
P0149	N0150	N0151	50.00	600	114.0	0.0	Open
P0150	N0151	N0152	50.00	600	114.0	0.0	Open
P0151	N0152	N0153	50.00	600	114.0	0.0	Open
P0152	N0153	N0154	50.00	600	114.0	0.0	Open
P0153	N0154	N0155	50.01	600	114.0	0.0	Open
P0154	N0155	N0156	50.00	600	114.0	0.0	Open
P0155	N0156	N0157	50.00	600	114.0	0.0	Open
P0156	N0157	N0158	50.00	600	114.0	0.0	Open
P0157	N0158	N0159	50.00	600	114.0	0.0	Open
P0158	N0159	N0160	50.00	600	114.0	0.0	Open
P0159	N0160	N0161	50.00	600	114.0	0.0	Open
P0160	N0161	N0162	50.00	600	114.0	0.0	Open
P0161	N0162	N0163	50.00	600	114.0	0.0	Open
P0162	N0163	N0164	50.00	600	114.0	0.0	Open
P0163	N0164	N0165	50.00	600	114.0	0.0	Open
P0164	N0165	N0166	50.00	600	114.0	0.0	Open
P0165	N0166	N0167	50.01	600	114.0	0.0	Open
P0166	N0167	N0168	50.00	600	114.0	0.0	Open
P0167	N0168	N0169	50.00	600	114.0	0.0	Open
P0168	N0169	N0170	50.00	600	114.0	0.0	Open
P0169	N0170	N0171	50.00	600	114.0	0.0	Open
P0170	N0171	N0172	50.00	600	114.0	0.0	Open
P0171	N0172	N0173	50.01	600	114.0	0.0	Open
P0172	N0173	N0174	50.00	600	114.0	0.0	Open
P0173	N0174	N0175	50.00	600	114.0	0.0	Open
P0174	N0175	N0176	50.00	600	114.0	0.0	Open
P0175	N0176	N0177	50.00	600	114.0	0.0	Open
P0176	N0177	N0178	50.00	600	114.0	0.0	Open
P0177	N0178	N0179	50.00	600	114.0	0.0	Open
P0178	N0179	N0180	50.00	600	114.0	0.0	Open
P0179	N0180	N0181	50.00	600	114.0	0.0	Open
P0180	N0181	N0182	50.00	600	114.0	0.0	Open
P0181	N0182	N0183	50.01	600	114.0	0.0	Open
P0182	N0183	N0184	50.00	600	114.0	0.0	Open
P0183	N0184	N0185	50.00	600	114.0	0.0	Open
P0184	N0185	N0186	50.00	600	114.0	0.0	Open
P0185	N0186	N0187	50.00	600	114.0	0.0	Open
P0186	N0187	N0188	50.00	600	114.0	0.0	Open
P0187	N0188	N0189	50.00	600	114.0	0.0	Open
P0188	N0189	N0190	50.01	600	114.0	0.0	Open
P0189	N0190	N0191	50.00	600	114.0	0.0	Open
P0190	N0191	N0192	50.00	600	114.0	0.0	Open
P0191	N0192	N0193	50.00	600	114.0	0.0	Open
P0192	N0193	N0194	50.00	600	114.0	0.0	Open
P0193	N0194	N0195	50.00	600	114.0	0.0	Open
P0194	N0195	N0196	50.00	600	114.0	0.0	Open
P0195	N0196	N0197	50.00	600	114.0	0.0	Open
P0196	N0197	N0198	50.00	600	114.0	0.0	Open
P0197	N0198	N0199	50.00	600	114.0	0.0	Open
P0198	N0199	N0200	50.00	600	114.0	0.0	Open
P0199	N0200	N0201	50.00	600	114.0	0.0	Open
P0200	N0201	N0202	50.01	600	114.0	0.0	Open
P0201	N0202	N0203	50.00	600	114.0	0.0	Open
P0202	N0203	N0204	50.00	600	114.0	0.0	Open
P0203	N0204	N0205	50.00	600	114.0	0.0	Open
P0204	N0205	N0206	50.00	600	114.0	0.0	Open
P0205	N0206	N0207	50.00	600	114.0	0.0	Open
P0206	N0207	N0208	50.00	600	114.0	0.0	Open
P0207	N0208	N0209	50.00	600	114.0	0.0	Open
P0208	N0209	N0210	50.00	600	114.0	0.0	Open
P0209	N0210	N0211	50.00	600	114.0	0.0	Open
P0210	N0211	N0212	50.00	600	114.0	0.0	Open
P0211	N0212	N0213	50.01	600	114.0	0.0	Open
P0212	N0213	N0214	50.00	600	114.0	0.0	Open
P0213	N0214	N0215	50.00	600	114.0	0.0	Open
P0214	N0215	N0216	50.01	600	114.0	0.0	Open
P0215	N0216	N0217	50.00	600	114.0	0.0	Open
P0216	N0217	N0218	50.00	600	114.0	0.0	Open
P0217	N0218	N0219	50.00	600	114.0	0.0	Open
P0218	N0219	N0220	50.00	600	114.0	0.0	Open
P0219	N0220	N0221	50.00	600	114.0	0.0	Open
P0220	N0221	N0222	50.00	600	114.0	0.0	Open
P0221	N0222	N0223	50.00	600	114.0	0.0	Open
P0222	N0223	N0224	50.02	600	114.0	0.0	Open
P0223	N0224	N0225	50.00	600	114.0	0.0	Open
P0224	N0225	N0226	50.00	600	114.0	0.0	Open
P0225	N0226	N0227	50.01	600	114.0	0.0	Open
P0226	N0227	N0228	50.00	600	114.0	0.0	Open
P0227	N0228	N0229	50.00	600	114.0	0.0	Open
P0228	N0229	N0230	50.00	600	114.0	0.0	Open
P0229	N0230	N0231	50.01	600	114.0	0.0	Open
P0230	N0231	N0232	50.00	600	114.0	0.0	Open
P0231	N0232	N0233	50.00	600	114.0	0.0	Open
P0232	N0233	N0234	50.00	600	114.0	0.0	Open
P0233	N0234	N0235	50.02	600	114.0	0.0	Open
P0234	N0235	N0236	50.00	600	114.0	0.0	Open
P0235	N0236	N0237	50.00	600	114.0	0.0	Open
P0236	N0237	N0238	50.01	600	114.0	0.0	Open
P0237	N0238	N0239	50.00	600	114.0	0.0	Open
P0238	N0239	N0240	50.00	600	114.0	0.0	Open
P0239	N0240	N0241	50.00	600	114.0	0.0	Open
P0240	N0241	N0242	50.00	600	114.0	0.0	Open
P0241	N0242	N0243	50.00	600	114.0	0.0	Open
P0242	N0243	N0244	50.00	600	114.0	0.0	Open
P0243	N0244	N0245	50.00	600	114.0	0.0	Open
P0244	N0245	N0246	50.00	600	114.0	0.0	Open
P0245	N0246	N0247	50.03	600	114.0	0.0	Open
P0246	N0247	N0248	50.00	600	114.0	0.0	Open
P0247	N0248	N0249	50.01	600	114.0	0.0	Open
P0248	N0249	N0250	50.00	600	114.0	0.0	Open
P0249	N0250	N0251	50.00	600	114.0	0.0	Open
P0250	N0251	N0252	50.01	600	114.0	0.0	Open
P0251	N0252	N0253	50.01	600	114.0	0.0	Open
P0252	N0253	N0254	50.00	600	114.0	0.0	Open
P0253	N0254	N0255	50.00	600	114.0	0.0	Open
P0254	N0255	N0256	50.00	600	114.0	0.0	Open
P0255	N0256	N0257	50.00	600	114.0	0.0	Open
P0256	N0257	N0258	50.00	600	114.0	0.0	Open
P0257	N0258	N0259	50.01	600	114.0	0.0	Open
P0258	N0259	N0260	50.00	600	114.0	0.0	Open
P0259	N0260	N0261	50.07	600	114.0	0.0	Open
P0260	N0261	N0262	50.02	600	114.0	0.0	Open
P0261	N0262	N0263	50.02	600	114.0	0.0	Open
P0262	N0263	N0264	50.01	600	114.0	0.0	Open
P0263	N0264	N0265	50.01	600	114.0	0.0	Open
P0264	N0265	N0266	50.03	600	114.0	0.0	Open
P0265	N0266	N0267	50.02	600	114.0	0.0	Open
P0266	N0267	N0268	50.01	600	114.0	0.0	Open
P0267	N0268	N0269	50.02	600	114.0	0.0	Open
P0268	N0269	N0270	50.00	600	114.0	0.0	Open
P0269	N0270	N0271	50.01	600	114.0	0.0	Open
P0270	N0271	N0272	50.02	600	114.0	0.0	Open
P0271	N0272	N0273	50.02	600	114.0	0.0	Open
P0272	N0273	N0274	50.01	600	114.0	0.0	Open
P0273	N0274	N0275	50.01	600	114.0	0.0	Open
P0274	N0275	N0276	50.01	600	114.0	0.0	Open
P0275	N0276	N0277	50.01	600	114.0	0.0	Open
P0276	N0277	N0278	50.00	600	114.0	0.0	Open
P0277	N0278	N0279	50.02	600	114.0	0.0	Open
P0278	N0279	N0280	50.00	600	114.0	0.0	Open
P0279	N0280	N0281	50.00	600	114.0	0.0	Open
P0280	N0281	N0282	50.00	600	114.0	0.0	Open
P0281	N0282	N0283	50.00	600	114.0	0.0	Open
P0282	N0283	N0284	50.00	600	114.0	0.0	Open
P0283	N0284	N0285	50.00	600	114.0	0.0	Open
P0284	N0285	N0286	50.00	600	114.0	0.0	Open
P0285	N0286	N0287	50.00	600	114.0	0.0	Open
P0286	N0287	N0288	50.00	600	114.0	0.0	Open
P0287	N0288	N0289	50.00	600	114.0	0.0	Open
P0288	N0289	N0290	50.00	600	114.0	0.0	Open
P0289	N0290	N0291	50.00	600	114.0	0.0	Open
P0290	N0291	N0292	50.00	600	114.0	0.0	Open
P0291	N0292	N0293	50.00	600	114.0	0.0	Open
P0292	N0293	N0294	50.00	600	114.0	0.0	Open
P0293	N0294	N0295	50.00	600	114.0	0.0	Open
P0294	N0295	N0296	50.00	600	114.0	0.0	Open
P0295	N0296	N0297	50.00	600	114.0	0.0	Open
P0296	N0297	N0298	50.00	600	114.0	0.0	Open
P0297	N0298	N0299	50.01	600	114.0	0.0	Open
P0298	N0299	N0300	50.00	600	114.0	0.0	Open
P0299	N0300	N0301	50.00	600	114.0	0.0	Open
P0300	N0301	N0302	50.00	600	114.0	0.0	Open
P0301	N0302	N0303	50.00	600	114.0	0.0	Open
P0302	N0303	N0304	50.00	600	114.0	0.0	Open
P0303	N0304	N0305	50.00	600	114.0	0.0	Open
P0304	N0305	N0306	50.00	600	114.0	0.0	Open
P0305	N0306	N0307	50.00	600	114.0	0.0	Open
P0306	N0307	N0308	50.00	600	114.0	0.0	Open
P0307	N0308	N0309	50.00	600	114.0	0.0	Open
P0308	N0309	N0310	50.00	600	114.0	0.0	Open
P0309	N0310	N0311	50.00	600	114.0	0.0	Open
P0310	N0311	N0312	50.00	600	114.0	0.0	Open
P0311	N0312	N0313	50.00	600	114.0	0.0	Open
P0312	N0313	N0314	50.00	600	114.0	0.0	Open
P0313	N0314	N0315	50.00	600	114.0	0.0	Open
P0314	N0315	N0316	50.00	600	114.0	0.0	Open
P0315	N0316	N0317	50.00	600	114.0	0.0	Open
P0316	N0317	N0318	50.00	600	114.0	0.0	Open
P0317	N0318	N0319	50.00	600	114.0	0.0	Open
P0318	N0319	N0320	50.00	600	114.0	0.0	Open
P0319	N0320	N0321	50.00	600	114.0	0.0	Open
P0320	N0321	N0322	50.00	600	114.0	0.0	Open
P0321	N0322	N0323	50.00	600	114.0	0.0	Open
P0322	N0323	N0324	50.00	600	114.0	0.0	Open
P0323	N0324	N0325	50.00	600	114.0	0.0	Open
P0324	N0325	N0326	50.00	600	114.0	0.0	Open
P0325	N0326	N0327	50.00	600	114.0	0.0	Open
P0326	N0327	N0328	50.00	600	114.0	0.0	Open
P0327	N0328	N0329	50.00	600	114.0	0.0	Open
P0328	N0329	N0330	50.00	600	114.0	0.0	Open
P0329	N0330	N0331	50.00	600	114.0	0.0	Open
P0330	N0331	N0332	50.00	600	114.0	0.0	Open
P0331	N0332	N0333	50.00	600	114.0	0.0	Open
P0332	N0333	N0334	50.00	600	114.0	0.0	Open
P0333	N0334	N0335	50.00	600	114.0	0.0	Open
P0334	N0335	N0336	50.00	600	114.0	0.0	Open
P0335	N0336	N0337	50.00	600	114.0	0.0	Open
P0336	N0337	N0338	50.00	600	114.0	0.0	Open
P0337	N0338	N0339	50.00	600	114.0	0.0	Open
P0338	N0339	N0340	50.00	600	114.0	0.0	Open
P0339	N0340	N0341	50.00	600	114.0	0.0	Open
P0340	N0341	N0342	50.00	600	114.0	0.0	Open
P0341	N0342	N0343	50.00	600	114.0	0.0	Open
P0342	N0343	N0344	50.00	600	114.0	0.0	Open
P0343	N0344	N0345	50.00	600	114.0	0.0	Open
P0344	N0345	N0346	50.00	600	114.0	0.0	Open
P0345	N0346	N0347	50.00	600	114.0	0.0	Open
P0346	N0347	N0348	50.00	600	114.0	0.0	Open
P0347	N0348	N0349	50.00	600	114.0	0.0	Open
P0348	N0349	N0350	50.01	600	114.0	0.0	Open
P0349	N0350	N0351	50.00	600	114.0	0.0	Open
P0350	N0351	N0352	50.00	600	114.0	0.0	Open
P0351	N0352	N0353	50.00	600	114.0	0.0	Open
P0352	N0353	N0354	50.00	600	114.0	0.0	Open
P0353	N0354	N0355	50.00	600	114.0	0.0	Open
P0354	N0355	N0356	50.00	600	114.0	0.0	Open
P0355	N0356	N0357	50.02	600	114.0	0.0	Open
P0356	N0357	N0358	50.00	600	114.0	0.0	Open
P0357	N0358	N0359	50.01	600	114.0	0.0	Open
P0358	N0359	N0360	50.01	600	114.0	0.0	Open
P0359	N0360	N0361	50.01	600	114.0	0.0	Open
P0360	N0361	N0362	50.02	600	114.0	0.0	Open
P0361	N0362	N0363	50.00	600	114.0	0.0	Open
P0362	N0363	N0364	50.01	600	114.0	0.0	Open
P0363	N0364	N0365	50.00	600	114.0	0.0	Open
P0364	N0365	N0366	50.00	600	114.0	0.0	Open
P0365	N0366	N0367	50.00	600	114.0	0.0	Open
P0366	N0367	N0368	50.00	600	114.0	0.0	Open
P0367	N0368	N0369	50.00	600	114.0	0.0	Open
P0368	N0369	N0370	50.00	600	114.0	0.0	Open
P0369	N0370	N0371	50.00	600	114.0	0.0	Open
P0370	N0371	N0372	50.01	600	114.0	0.0	Open
P0371	N0372	N0373	50.00	600	114.0	0.0	Open
P0372	N0373	N0374	50.01	600	114.0	0.0	Open
P0373	N0374	N0375	50.01	600	114.0	0.0	Open
P0374	N0375	N0376	50.00	600	114.0	0.0	Open
P0375	N0376	N0377	50.01	600	114.0	0.0	Open
P0376	N0377	N0378	50.01	600	114.0	0.0	Open
P0377	N0378	N0379	50.04	600	114.0	0.0	Open
P0378	N0379	N0380	50.00	600	114.0	0.0	Open
P0379	N0380	N0381	50.02	600	114.0	0.0	Open
P0380	N0381	N0382	50.01	600	114.0	0.0	Open
P0381	N0382	N0383	50.00	600	114.0	0.0	Open
P0382	N0383	N0384	50.00	600	114.0	0.0	Open
P0383	N0384	N0385	50.00	600	114.0	0.0	Open
P0384	N0385	N0386	50.01	600	114.0	0.0	Open
P0385	N0386	N0387	50.01	600	114.0	0.0	Open
P0386	N0387	N0388	50.01	600	114.0	0.0	Open
P0387	N0388	N0389	50.02	600	114.0	0.0	Open
P0388	N0389	N0390	50.00	600	114.0	0.0	Open
P0389	N0390	N0391	50.03	600	114.0	0.0	Open
P0390	N0391	N0392	50.01	600	114.0	0.0	Open
P0391	N0392	N0393	50.00	600	114.0	0.0	Open
P0392	N0393	N0394	50.00	600	114.0	0.0	Open
P0393	N0394	N0395	43.56	600	114.0	0.0	Open
P0394	N0395	N0396	50.12	600	114.0	0.0	Open
P0395	N0396	N0397	50.17	600	114.0	0.0	Open
P0396	N0397	N0398	50.13	600	114.0	0.0	Open
P0397	N0398	N0399	50.17	600	114.0	0.0	Open
P0398	N0399	N0400	50.44	600	114.0	0.0	Open
P0399	N0400	N0401	50.71	600	114.0	0.0	Open
P0400	N0401	N0402	51.71	600	114.0	0.0	Open
GAP-Waypoint1	N0402	N0403	383.89	600	114.0	0.0	Open
P0401	N0403	N0404	20.01	600	114.0	0.0	Open
P0402	N0404	N0405	20.12	600	114.0	0.0	Open
P0403	N0405	N0406	20.02	600	114.0	0.0	Open
P0404	N0406	N0407	11.74	600	114.0	0.0	Open
P0405	N0407	N0408	32.70	600	114.0	0.0	Open
P0406	N0408	N0409	29.48	600	114.0	0.0	Open
P0407	N0409	N0410	47.20	600	114.0	0.0	Open
P0408	N0410	N0411	56.04	600	114.0	0.0	Open
P0409	N0411	IKANA_GBR	20.04	600	114.0	0.0	Open
IKANA_NKANGAMO_GM_INLET	NKANGAMO_BPS_VD	NKANGAMO_BPS	5.00	600	114.0	0.0	Open
P0410	IKANA_GBR	N0413	170.33	600	114.0	0.0	Open
P0411	N0413	N0414	54.74	600	114.0	0.0	Open
P0412	N0414	N0415	52.92	600	114.0	0.0	Open
P0413	N0415	N0416	50.96	600	114.0	0.0	Open
P0414	N0416	N0417	51.60	600	114.0	0.0	Open
P0415	N0417	N0418	50.58	600	114.0	0.0	Open
P0416	N0418	N0419	50.32	600	114.0	0.0	Open
P0417	N0419	N0420	50.39	600	114.0	0.0	Open
P0418	N0420	N0421	50.13	600	114.0	0.0	Open
P0419	N0421	N0422	50.17	600	114.0	0.0	Open
P0420	N0422	N0423	50.09	600	114.0	0.0	Open
P0421	N0423	N0424	39.02	600	114.0	0.0	Open
P0422	N0424	N0425	50.01	600	114.0	0.0	Open
P0423	N0425	N0426	50.01	600	114.0	0.0	Open
P0424	N0426	N0427	50.00	600	114.0	0.0	Open
P0425	N0427	N0428	44.48	600	114.0	0.0	Open
P0426	N0428	N0429	50.06	600	114.0	0.0	Open
P0427	N0429	N0430	43.29	600	114.0	0.0	Open
P0428	N0430	N0431	50.03	600	114.0	0.0	Open
P0429	N0431	N0432	50.06	600	114.0	0.0	Open
P0430	N0432	N0433	50.01	600	114.0	0.0	Open
P0431	N0433	N0434	50.03	600	114.0	0.0	Open
P0432	N0434	N0435	50.03	600	114.0	0.0	Open
P0433	N0435	N0436	50.01	600	114.0	0.0	Open
P0434	N0436	N0437	50.01	600	114.0	0.0	Open
P0435	N0437	N0438	50.02	600	114.0	0.0	Open
P0436	N0438	N0439	50.01	600	114.0	0.0	Open
P0437	N0439	N0440	50.03	600	114.0	0.0	Open
P0438	N0440	N0441	50.01	600	114.0	0.0	Open
P0439	N0441	N0442	50.02	600	114.0	0.0	Open
P0440	N0442	N0443	50.00	600	114.0	0.0	Open
P0441	N0443	N0444	50.01	600	114.0	0.0	Open
P0442	N0444	N0445	50.01	600	114.0	0.0	Open
P0443	N0445	N0446	50.00	600	114.0	0.0	Open
P0444	N0446	N0447	50.00	600	114.0	0.0	Open
P0445	N0447	N0448	50.02	600	114.0	0.0	Open
P0446	N0448	N0449	50.00	600	114.0	0.0	Open
P0447	N0449	N0450	50.00	600	114.0	0.0	Open
P0448	N0450	N0451	50.00	600	114.0	0.0	Open
P0449	N0451	N0452	50.00	600	114.0	0.0	Open
P0450	N0452	N0453	50.00	600	114.0	0.0	Open
P0451	N0453	N0454	50.01	600	114.0	0.0	Open
P0452	N0454	N0455	50.00	600	114.0	0.0	Open
P0453	N0455	N0456	50.01	600	114.0	0.0	Open
P0454	N0456	N0457	50.00	600	114.0	0.0	Open
P0455	N0457	N0458	50.00	600	114.0	0.0	Open
P0456	N0458	N0459	50.00	600	114.0	0.0	Open
P0457	N0459	N0460	50.00	600	114.0	0.0	Open
P0458	N0460	N0461	50.00	600	114.0	0.0	Open
P0459	N0461	N0462	50.00	600	114.0	0.0	Open
P0460	N0462	N0463	50.00	600	114.0	0.0	Open
P0461	N0463	N0464	50.00	600	114.0	0.0	Open
P0462	N0464	N0465	50.00	600	114.0	0.0	Open
P0463	N0465	N0466	50.00	600	114.0	0.0	Open
P0464	N0466	N0467	50.01	600	114.0	0.0	Open
P0465	N0467	N0468	46.64	600	114.0	0.0	Open
P0466	N0468	N0469	50.00	600	114.0	0.0	Open
P0467	N0469	N0470	50.00	600	114.0	0.0	Open
P0468	N0470	N0471	50.00	600	114.0	0.0	Open
P0469	N0471	N0472	50.00	600	114.0	0.0	Open
P0470	N0472	N0473	50.00	600	114.0	0.0	Open
P0471	N0473	N0474	50.00	600	114.0	0.0	Open
P0472	N0474	N0475	50.00	600	114.0	0.0	Open
P0473	N0475	N0476	50.00	600	114.0	0.0	Open
P0474	N0476	N0477	50.00	600	114.0	0.0	Open
P0475	N0477	N0478	50.00	600	114.0	0.0	Open
P0476	N0478	N0479	50.00	600	114.0	0.0	Open
P0477	N0479	N0480	50.00	600	114.0	0.0	Open
P0478	N0480	N0481	50.00	600	114.0	0.0	Open
P0479	N0481	N0482	50.00	600	114.0	0.0	Open
P0480	N0482	N0483	50.00	600	114.0	0.0	Open
P0481	N0483	N0484	50.00	600	114.0	0.0	Open
P0482	N0484	N0485	50.00	600	114.0	0.0	Open
P0483	N0485	N0486	50.00	600	114.0	0.0	Open
P0484	N0486	N0487	50.00	600	114.0	0.0	Open
P0485	N0487	N0488	50.00	600	114.0	0.0	Open
P0486	N0488	N0489	50.00	600	114.0	0.0	Open
P0487	N0489	N0490	50.00	600	114.0	0.0	Open
P0488	N0490	N0491	50.01	600	114.0	0.0	Open
P0489	N0491	N0492	50.00	600	114.0	0.0	Open
P0490	N0492	N0493	50.01	600	114.0	0.0	Open
P0491	N0493	N0494	50.01	600	114.0	0.0	Open
P0492	N0494	N0495	50.00	600	114.0	0.0	Open
P0493	N0495	N0496	50.00	600	114.0	0.0	Open
P0494	N0496	N0497	50.00	600	114.0	0.0	Open
P0495	N0497	N0498	50.03	600	114.0	0.0	Open
P0496	N0498	N0499	50.01	600	114.0	0.0	Open
P0497	N0499	N0500	50.00	600	114.0	0.0	Open
P0498	N0500	N0501	50.00	600	114.0	0.0	Open
P0499	N0501	N0502	50.01	600	114.0	0.0	Open
P0500	N0502	N0503	50.01	600	114.0	0.0	Open
P0501	N0503	N0504	50.01	600	114.0	0.0	Open
P0502	N0504	N0505	50.01	600	114.0	0.0	Open
P0503	N0505	N0506	50.01	600	114.0	0.0	Open
P0504	N0506	N0507	50.01	600	114.0	0.0	Open
P0505	N0507	N0508	50.02	600	114.0	0.0	Open
P0506	N0508	N0509	50.02	600	114.0	0.0	Open
P0507	N0509	N0510	50.03	600	114.0	0.0	Open
P0508	N0510	N0511	50.01	600	114.0	0.0	Open
P0509	N0511	N0512	50.03	600	114.0	0.0	Open
P0510	N0512	N0513	50.01	600	114.0	0.0	Open
P0511	N0513	N0514	50.02	600	114.0	0.0	Open
P0512	N0514	N0515	50.00	600	114.0	0.0	Open
P0513	N0515	N0516	50.00	600	114.0	0.0	Open
P0514	N0516	N0517	50.00	600	114.0	0.0	Open
P0515	N0517	N0518	50.01	600	114.0	0.0	Open
P0516	N0518	N0519	50.03	600	114.0	0.0	Open
P0517	N0519	N0520	50.00	600	114.0	0.0	Open
P0518	N0520	N0521	50.01	600	114.0	0.0	Open
P0519	N0521	N0522	50.00	600	114.0	0.0	Open
P0520	N0522	N0523	50.00	600	114.0	0.0	Open
P0521	N0523	N0524	50.00	600	114.0	0.0	Open
P0522	N0524	N0525	50.00	600	114.0	0.0	Open
P0523	N0525	N0526	50.00	600	114.0	0.0	Open
P0524	N0526	N0527	50.00	600	114.0	0.0	Open
P0525	N0527	N0528	50.03	600	114.0	0.0	Open
P0526	N0528	N0529	50.00	600	114.0	0.0	Open
P0527	N0529	N0530	50.00	600	114.0	0.0	Open
P0528	N0530	N0531	50.01	600	114.0	0.0	Open
P0529	N0531	N0532	50.02	600	114.0	0.0	Open
P0530	N0532	N0533	50.00	600	114.0	0.0	Open
P0531	N0533	N0534	50.01	600	114.0	0.0	Open
P0532	N0534	N0535	50.01	600	114.0	0.0	Open
P0533	N0535	N0536	50.03	600	114.0	0.0	Open
P0534	N0536	N0537	50.01	600	114.0	0.0	Open
P0535	N0537	N0538	50.01	600	114.0	0.0	Open
P0536	N0538	N0539	50.02	600	114.0	0.0	Open
P0537	N0539	N0540	50.06	600	114.0	0.0	Open
P0538	N0540	N0541	50.00	600	114.0	0.0	Open
P0539	N0541	N0542	50.04	600	114.0	0.0	Open
P0540	N0542	N0543	50.02	600	114.0	0.0	Open
P0541	N0543	N0544	50.19	600	114.0	0.0	Open
P0542	N0544	N0545	50.09	600	114.0	0.0	Open
P0543	N0545	N0546	50.03	600	114.0	0.0	Open
P0544	N0546	N0547	50.01	600	114.0	0.0	Open
P0545	N0547	N0548	50.00	600	114.0	0.0	Open
P0546	N0548	N0549	50.01	600	114.0	0.0	Open
P0547	N0549	N0550	50.01	600	114.0	0.0	Open
P0548	N0550	N0551	50.00	600	114.0	0.0	Open
P0549	N0551	N0552	50.01	600	114.0	0.0	Open
P0550	N0552	N0553	50.02	600	114.0	0.0	Open
P0551	N0553	N0554	50.00	600	114.0	0.0	Open
P0552	N0554	N0555	50.01	600	114.0	0.0	Open
P0553	N0555	N0556	50.00	600	114.0	0.0	Open
P0554	N0556	N0557	50.00	600	114.0	0.0	Open
P0555	N0557	N0558	50.00	600	114.0	0.0	Open
P0556	N0558	N0559	50.00	600	114.0	0.0	Open
P0557	N0559	N0560	50.00	600	114.0	0.0	Open
P0558	N0560	N0561	50.00	600	114.0	0.0	Open
P0559	N0561	N0562	50.01	600	114.0	0.0	Open
P0560	N0562	N0563	50.00	600	114.0	0.0	Open
P0561	N0563	N0564	50.05	600	114.0	0.0	Open
P0562	N0564	N0565	49.80	600	114.0	0.0	Open
P0563	N0565	N0566	50.01	600	114.0	0.0	Open
P0564	N0566	N0567	48.00	600	114.0	0.0	Open
P0565	N0567	N0568	50.10	600	114.0	0.0	Open
P0566	N0568	N0569	50.00	600	114.0	0.0	Open
P0567	N0569	N0570	50.00	600	114.0	0.0	Open
P0568	N0570	N0571	50.00	600	114.0	0.0	Open
P0569	N0571	N0572	50.00	600	114.0	0.0	Open
P0570	N0572	N0573	50.11	600	114.0	0.0	Open
P0571	N0573	N0574	50.02	600	114.0	0.0	Open
P0572	N0574	N0575	50.01	600	114.0	0.0	Open
P0573	N0575	N0576	50.00	600	114.0	0.0	Open
P0574	N0576	N0577	50.00	600	114.0	0.0	Open
P0575	N0577	N0578	50.00	600	114.0	0.0	Open
P0576	N0578	N0579	50.00	600	114.0	0.0	Open
P0577	N0579	N0580	50.00	600	114.0	0.0	Open
P0578	N0580	N0581	50.02	600	114.0	0.0	Open
P0579	N0581	N0582	50.01	600	114.0	0.0	Open
P0580	N0582	N0583	50.02	600	114.0	0.0	Open
P0581	N0583	N0584	50.01	600	114.0	0.0	Open
P0582	N0584	N0585	50.00	600	114.0	0.0	Open
P0583	N0585	N0586	50.01	600	114.0	0.0	Open
P0584	N0586	N0587	50.00	600	114.0	0.0	Open
P0585	N0587	N0588	50.00	600	114.0	0.0	Open
P0586	N0588	N0589	50.02	600	114.0	0.0	Open
P0587	N0589	N0590	50.02	600	114.0	0.0	Open
P0588	N0590	N0591	50.03	600	114.0	0.0	Open
P0589	N0591	N0592	50.03	600	114.0	0.0	Open
P0590	N0592	N0593	50.04	600	114.0	0.0	Open
P0591	N0593	N0594	50.03	600	114.0	0.0	Open
P0592	N0594	N0595	50.06	600	114.0	0.0	Open
P0593	N0595	N0596	50.02	600	114.0	0.0	Open
P0594	N0596	N0597	50.00	600	114.0	0.0	Open
P0595	N0597	N0598	50.01	600	114.0	0.0	Open
P0596	N0598	N0599	50.01	600	114.0	0.0	Open
P0597	N0599	N0600	50.00	600	114.0	0.0	Open
P0598	N0600	N0601	50.00	600	114.0	0.0	Open
P0599	N0601	N0602	50.00	600	114.0	0.0	Open
P0600	N0602	N0603	50.00	600	114.0	0.0	Open
P0601	N0603	N0604	50.00	600	114.0	0.0	Open
P0602	N0604	N0605	49.99	600	114.0	0.0	Open
P0603	N0605	N0606	50.00	600	114.0	0.0	Open
P0604	N0606	N0607	50.00	600	114.0	0.0	Open
P0605	N0607	N0608	50.00	600	114.0	0.0	Open
P0606	N0608	N0609	50.00	600	114.0	0.0	Open
P0607	N0609	N0610	50.00	600	114.0	0.0	Open
P0608	N0610	N0611	50.00	600	114.0	0.0	Open
P0609	N0611	N0612	50.00	600	114.0	0.0	Open
P0610	N0612	N0613	50.01	600	114.0	0.0	Open
P0611	N0613	N0614	50.00	600	114.0	0.0	Open
P0612	N0614	N0615	50.00	600	114.0	0.0	Open
P0613	N0615	N0616	50.00	600	114.0	0.0	Open
P0614	N0616	N0617	50.01	600	114.0	0.0	Open
P0615	N0617	N0618	50.00	600	114.0	0.0	Open
P0616	N0618	N0619	50.00	600	114.0	0.0	Open
P0617	N0619	N0620	50.00	600	114.0	0.0	Open
P0618	N0620	N0621	50.00	600	114.0	0.0	Open
P0619	N0621	N0622	50.01	600	114.0	0.0	Open
P0620	N0622	N0623	50.01	600	114.0	0.0	Open
P0621	N0623	N0624	50.02	600	114.0	0.0	Open
P0622	N0624	N0625	50.01	600	114.0	0.0	Open
P0623	N0625	N0626	50.02	600	114.0	0.0	Open
P0624	N0626	N0627	50.03	600	114.0	0.0	Open
P0625	N0627	N0628	50.02	600	114.0	0.0	Open
P0626	N0628	N0629	50.03	600	114.0	0.0	Open
P0627	N0629	N0630	50.00	600	114.0	0.0	Open
P0628	N0630	N0631	50.04	600	114.0	0.0	Open
P0629	N0631	N0632	50.01	600	114.0	0.0	Open
P0630	N0632	N0633	50.14	600	114.0	0.0	Open
P0631	N0633	N0634	50.06	600	114.0	0.0	Open
P0632	N0634	N0635	50.00	600	114.0	0.0	Open
P0633	N0635	N0636	50.00	600	114.0	0.0	Open
P0634	N0636	N0637	50.00	600	114.0	0.0	Open
P0635	N0637	N0638	50.00	600	114.0	0.0	Open
P0636	N0638	N0639	50.02	600	114.0	0.0	Open
P0637	N0639	N0640	50.00	600	114.0	0.0	Open
P0638	N0640	N0641	50.00	600	114.0	0.0	Open
P0639	N0641	N0642	50.00	600	114.0	0.0	Open
P0640	N0642	N0643	50.00	600	114.0	0.0	Open
P0641	N0643	N0644	50.00	600	114.0	0.0	Open
P0642	N0644	N0645	50.00	600	114.0	0.0	Open
P0643	N0645	N0646	50.01	600	114.0	0.0	Open
P0644	N0646	N0647	50.01	600	114.0	0.0	Open
P0645	N0647	N0648	50.00	600	114.0	0.0	Open
P0646	N0648	N0649	50.00	600	114.0	0.0	Open
P0647	N0649	N0650	50.01	600	114.0	0.0	Open
P0648	N0650	N0651	50.00	600	114.0	0.0	Open
P0649	N0651	N0652	50.01	600	114.0	0.0	Open
P0650	N0652	N0653	50.01	600	114.0	0.0	Open
P0651	N0653	N0654	50.02	600	114.0	0.0	Open
P0652	N0654	N0655	50.06	600	114.0	0.0	Open
P0653	N0655	N0656	50.03	600	114.0	0.0	Open
P0654	N0656	N0657	50.15	600	114.0	0.0	Open
P0655	N0657	N0658	50.04	600	114.0	0.0	Open
P0656	N0658	N0659	50.06	600	114.0	0.0	Open
P0657	N0659	N0660	50.06	600	114.0	0.0	Open
P0658	N0660	N0661	50.06	600	114.0	0.0	Open
P0659	N0661	N0662	50.08	600	114.0	0.0	Open
P0660	N0662	N0663	50.02	600	114.0	0.0	Open
P0661	N0663	N0664	50.05	600	114.0	0.0	Open
P0662	N0664	N0665	50.03	600	114.0	0.0	Open
P0663	N0665	N0666	50.03	600	114.0	0.0	Open
P0664	N0666	N0667	50.02	600	114.0	0.0	Open
P0665	N0667	N0668	50.02	600	114.0	0.0	Open
P0666	N0668	N0669	50.00	600	114.0	0.0	Open
P0667	N0669	N0670	50.00	600	114.0	0.0	Open
P0668	N0670	N0671	50.00	600	114.0	0.0	Open
P0669	N0671	N0672	50.00	600	114.0	0.0	Open
P0670	N0672	N0673	50.00	600	114.0	0.0	Open
P0671	N0673	N0674	50.05	600	114.0	0.0	Open
P0672	N0674	N0675	49.87	600	114.0	0.0	Open
P0673	N0675	N0676	50.06	600	114.0	0.0	Open
P0674	N0676	N0677	50.02	600	114.0	0.0	Open
P0675	N0677	N0678	50.06	600	114.0	0.0	Open
P0676	N0678	N0679	50.09	600	114.0	0.0	Open
P0677	N0679	N0680	50.03	600	114.0	0.0	Open
P0678	N0680	N0681	50.05	600	114.0	0.0	Open
P0679	N0681	N0682	50.03	600	114.0	0.0	Open
P0680	N0682	N0683	50.04	600	114.0	0.0	Open
P0681	N0683	N0684	50.04	600	114.0	0.0	Open
P0682	N0684	N0685	50.18	600	114.0	0.0	Open
P0683	N0685	N0686	50.06	600	114.0	0.0	Open
P0684	N0686	N0687	50.14	600	114.0	0.0	Open
P0685	N0687	N0688	50.05	600	114.0	0.0	Open
P0686	N0688	N0689	50.02	600	114.0	0.0	Open
P0687	N0689	N0690	50.04	600	114.0	0.0	Open
P0688	N0690	N0691	50.06	600	114.0	0.0	Open
P0689	N0691	N0692	50.01	600	114.0	0.0	Open
P0690	N0692	N0693	50.06	600	114.0	0.0	Open
P0691	N0693	N0694	50.06	600	114.0	0.0	Open
P0692	N0694	N0695	50.04	600	114.0	0.0	Open
P0693	N0695	N0696	50.08	600	114.0	0.0	Open
P0694	N0696	N0697	50.04	600	114.0	0.0	Open
P0695	N0697	N0698	50.04	600	114.0	0.0	Open
P0696	N0698	N0699	50.03	600	114.0	0.0	Open
P0697	N0699	N0700	50.04	600	114.0	0.0	Open
P0698	N0700	N0701	50.02	600	114.0	0.0	Open
P0699	N0701	N0702	50.02	600	114.0	0.0	Open
P0700	N0702	N0703	50.00	600	114.0	0.0	Open
P0701	N0703	N0704	50.00	600	114.0	0.0	Open
P0702	N0704	N0705	50.00	600	114.0	0.0	Open
P0703	N0705	N0706	50.02	600	114.0	0.0	Open
P0704	N0706	N0707	50.00	600	114.0	0.0	Open
P0705	N0707	N0708	50.00	600	114.0	0.0	Open
P0706	N0708	N0709	50.03	600	114.0	0.0	Open
P0707	N0709	N0710	50.00	600	114.0	0.0	Open
P0708	N0710	N0711	50.01	600	114.0	0.0	Open
P0709	N0711	N0712	50.01	600	114.0	0.0	Open
P0710	N0712	N0713	50.00	600	114.0	0.0	Open
P0711	N0713	N0714	50.02	600	114.0	0.0	Open
P0712	N0714	N0715	50.01	600	114.0	0.0	Open
P0713	N0715	N0716	50.00	600	114.0	0.0	Open
P0714	N0716	N0717	50.03	600	114.0	0.0	Open
P0715	N0717	N0718	50.00	600	114.0	0.0	Open
P0716	N0718	N0719	50.00	600	114.0	0.0	Open
P0717	N0719	N0720	50.05	600	114.0	0.0	Open
P0718	N0720	N0721	50.02	600	114.0	0.0	Open
P0719	N0721	N0722	50.04	600	114.0	0.0	Open
P0720	N0722	N0723	50.01	600	114.0	0.0	Open
P0721	N0723	N0724	50.04	600	114.0	0.0	Open
P0722	N0724	N0725	50.01	600	114.0	0.0	Open
P0723	N0725	N0726	50.01	600	114.0	0.0	Open
P0724	N0726	N0727	50.01	600	114.0	0.0	Open
P0725	N0727	N0728	50.01	600	114.0	0.0	Open
P0726	N0728	N0729	50.00	600	114.0	0.0	Open
P0727	N0729	N0730	50.00	600	114.0	0.0	Open
P0728	N0730	N0731	50.00	600	114.0	0.0	Open
P0729	N0731	N0732	50.08	600	114.0	0.0	Open
P0730	N0732	N0733	50.04	600	114.0	0.0	Open
P0731	N0733	N0734	50.06	600	114.0	0.0	Open
P0732	N0734	N0735	50.09	600	114.0	0.0	Open
P0733	N0735	N0736	50.03	600	114.0	0.0	Open
P0734	N0736	N0737	50.06	600	114.0	0.0	Open
P0735	N0737	N0738	50.03	600	114.0	0.0	Open
P0736	N0738	N0739	50.02	600	114.0	0.0	Open
P0737	N0739	N0740	50.03	600	114.0	0.0	Open
P0738	N0740	N0741	50.02	600	114.0	0.0	Open
P0739	N0741	N0742	50.02	600	114.0	0.0	Open
P0740	N0742	N0743	50.00	600	114.0	0.0	Open
P0741	N0743	N0744	50.00	600	114.0	0.0	Open
P0742	N0744	N0745	50.01	600	114.0	0.0	Open
P0743	N0745	N0746	49.99	600	114.0	0.0	Open
P0744	N0746	N0747	50.01	600	114.0	0.0	Open
P0745	N0747	N0748	50.02	600	114.0	0.0	Open
P0746	N0748	N0749	50.00	600	114.0	0.0	Open
P0747	N0749	N0750	50.00	600	114.0	0.0	Open
P0748	N0750	N0751	50.00	600	114.0	0.0	Open
P0749	N0751	N0752	50.00	600	114.0	0.0	Open
P0750	N0752	N0753	50.00	600	114.0	0.0	Open
P0751	N0753	N0754	50.00	600	114.0	0.0	Open
P0752	N0754	N0755	50.02	600	114.0	0.0	Open
P0753	N0755	N0756	50.01	600	114.0	0.0	Open
P0754	N0756	N0757	50.00	600	114.0	0.0	Open
P0755	N0757	N0758	50.01	600	114.0	0.0	Open
P0756	N0758	N0759	50.00	600	114.0	0.0	Open
P0757	N0759	N0760	50.00	600	114.0	0.0	Open
P0758	N0760	N0761	50.00	600	114.0	0.0	Open
P0759	N0761	N0762	50.00	600	114.0	0.0	Open
P0760	N0762	N0763	50.00	600	114.0	0.0	Open
P0761	N0763	N0764	50.00	600	114.0	0.0	Open
P0762	N0764	N0765	50.00	600	114.0	0.0	Open
P0763	N0765	N0766	50.00	600	114.0	0.0	Open
P0764	N0766	N0767	50.00	600	114.0	0.0	Open
P0765	N0767	N0768	50.00	600	114.0	0.0	Open
P0766	N0768	N0769	50.03	600	114.0	0.0	Open
P0767	N0769	N0770	50.00	600	114.0	0.0	Open
P0768	N0770	N0771	50.00	600	114.0	0.0	Open
P0769	N0771	N0772	50.03	600	114.0	0.0	Open
P0770	N0772	N0773	50.01	600	114.0	0.0	Open
P0771	N0773	N0774	50.16	600	114.0	0.0	Open
P0772	N0774	N0775	50.00	600	114.0	0.0	Open
P0773	N0775	N0776	50.00	600	114.0	0.0	Open
P0774	N0776	N0777	50.00	600	114.0	0.0	Open
P0775	N0777	N0778	50.00	600	114.0	0.0	Open
P0776	N0778	N0779	50.02	600	114.0	0.0	Open
P0777	N0779	N0780	50.10	600	114.0	0.0	Open
P0778	N0780	N0781	50.00	600	114.0	0.0	Open
P0779	N0781	N0782	49.13	600	114.0	0.0	Open
P0780	N0782	N0783	50.03	600	114.0	0.0	Open
P0781	N0783	N0784	50.01	600	114.0	0.0	Open
P0782	N0784	N0785	50.01	600	114.0	0.0	Open
P0783	N0785	N0786	50.02	600	114.0	0.0	Open
P0784	N0786	N0787	50.01	600	114.0	0.0	Open
P0785	N0787	N0788	50.00	600	114.0	0.0	Open
P0786	N0788	N0789	50.00	600	114.0	0.0	Open
P0787	N0789	N0790	50.02	600	114.0	0.0	Open
P0788	N0790	N0791	50.01	600	114.0	0.0	Open
P0789	N0791	N0792	50.00	600	114.0	0.0	Open
P0790	N0792	N0793	50.01	600	114.0	0.0	Open
P0791	N0793	N0794	50.00	600	114.0	0.0	Open
P0792	N0794	N0795	50.01	600	114.0	0.0	Open
P0793	N0795	N0796	50.00	600	114.0	0.0	Open
P0794	N0796	N0797	50.01	600	114.0	0.0	Open
P0795	N0797	N0798	50.00	600	114.0	0.0	Open
P0796	N0798	N0799	50.00	600	114.0	0.0	Open
P0797	N0799	N0800	50.00	600	114.0	0.0	Open
P0798	N0800	N0801	50.00	600	114.0	0.0	Open
P0799	N0801	N0802	50.00	600	114.0	0.0	Open
P0800	N0802	N0803	50.00	600	114.0	0.0	Open
P0801	N0803	N0804	50.01	600	114.0	0.0	Open
P0802	N0804	N0805	50.01	600	114.0	0.0	Open
P0803	N0805	N0806	50.00	600	114.0	0.0	Open
P0804	N0806	N0807	50.01	600	114.0	0.0	Open
P0805	N0807	N0808	50.01	600	114.0	0.0	Open
P0806	N0808	N0809	50.00	600	114.0	0.0	Open
P0807	N0809	N0810	50.00	600	114.0	0.0	Open
P0808	N0810	N0811	50.01	600	114.0	0.0	Open
P0809	N0811	N0812	50.00	600	114.0	0.0	Open
P0810	N0812	N0813	50.00	600	114.0	0.0	Open
P0811	N0813	N0814	50.00	600	114.0	0.0	Open
P0812	N0814	N0815	50.00	600	114.0	0.0	Open
P0813	N0815	N0816	50.03	600	114.0	0.0	Open
P0814	N0816	N0817	50.01	600	114.0	0.0	Open
P0815	N0817	N0818	50.01	600	114.0	0.0	Open
P0816	N0818	N0819	50.00	600	114.0	0.0	Open
P0817	N0819	N0820	50.03	600	114.0	0.0	Open
P0818	N0820	N0821	50.08	600	114.0	0.0	Open
P0819	N0821	N0822	50.00	600	114.0	0.0	Open
P0820	N0822	N0823	50.03	600	114.0	0.0	Open
P0821	N0823	N0824	50.00	600	114.0	0.0	Open
P0822	N0824	N0825	50.21	600	114.0	0.0	Open
P0823	N0825	N0826	50.00	600	114.0	0.0	Open
P0824	N0826	N0827	50.09	600	114.0	0.0	Open
P0825	N0827	N0828	50.09	600	114.0	0.0	Open
P0826	N0828	N0829	50.05	600	114.0	0.0	Open
P0827	N0829	N0830	50.03	600	114.0	0.0	Open
P0828	N0830	N0831	50.06	600	114.0	0.0	Open
P0829	N0831	N0832	50.08	600	114.0	0.0	Open
P0830	N0832	N0833	50.02	600	114.0	0.0	Open
P0831	N0833	N0834	50.11	600	114.0	0.0	Open
P0832	N0834	N0835	50.04	600	114.0	0.0	Open
P0833	N0835	N0836	50.06	600	114.0	0.0	Open
P0834	N0836	N0837	50.05	600	114.0	0.0	Open
P0835	N0837	N0838	50.04	600	114.0	0.0	Open
P0836	N0838	N0839	50.06	600	114.0	0.0	Open
P0837	N0839	N0840	50.02	600	114.0	0.0	Open
P0838	N0840	N0841	50.04	600	114.0	0.0	Open
P0839	N0841	N0842	50.13	600	114.0	0.0	Open
P0840	N0842	N0843	50.01	600	114.0	0.0	Open
P0841	N0843	N0844	50.02	600	114.0	0.0	Open
P0842	N0844	N0845	50.00	600	114.0	0.0	Open
P0843	N0845	N0846	50.06	600	114.0	0.0	Open
P0844	N0846	N0847	50.01	600	114.0	0.0	Open
P0845	N0847	N0848	50.06	600	114.0	0.0	Open
P0846	N0848	N0849	50.02	600	114.0	0.0	Open
P0847	N0849	N0850	50.03	600	114.0	0.0	Open
P0848	N0850	N0851	50.03	600	114.0	0.0	Open
P0849	N0851	N0852	50.02	600	114.0	0.0	Open
P0850	N0852	N0853	50.01	600	114.0	0.0	Open
P0851	N0853	N0854	50.02	600	114.0	0.0	Open
P0852	N0854	N0855	50.01	600	114.0	0.0	Open
P0853	N0855	N0856	50.02	600	114.0	0.0	Open
P0854	N0856	N0857	50.01	600	114.0	0.0	Open
P0855	N0857	N0858	50.00	600	114.0	0.0	Open
P0856	N0858	N0859	50.01	600	114.0	0.0	Open
P0857	N0859	N0860	50.01	600	114.0	0.0	Open
P0858	N0860	N0861	50.00	600	114.0	0.0	Open
P0859	N0861	N0862	50.00	600	114.0	0.0	Open
P0860	N0862	N0863	50.00	600	114.0	0.0	Open
P0861	N0863	N0864	50.00	600	114.0	0.0	Open
P0862	N0864	N0865	50.00	600	114.0	0.0	Open
P0863	N0865	N0866	50.00	600	114.0	0.0	Open
P0864	N0866	N0867	50.00	600	114.0	0.0	Open
P0865	N0867	N0868	50.00	600	114.0	0.0	Open
P0866	N0868	N0869	50.00	600	114.0	0.0	Open
P0867	N0869	N0870	50.00	600	114.0	0.0	Open
P0868	N0870	N0871	50.00	600	114.0	0.0	Open
P0869	N0871	N0872	50.00	600	114.0	0.0	Open
P0870	N0872	N0873	50.00	600	114.0	0.0	Open
P0871	N0873	N0874	50.00	600	114.0	0.0	Open
P0872	N0874	N0875	50.02	600	114.0	0.0	Open
P0873	N0875	N0876	50.01	600	114.0	0.0	Open
P0874	N0876	N0877	50.01	600	114.0	0.0	Open
P0875	N0877	N0878	50.03	600	114.0	0.0	Open
P0876	N0878	N0879	50.02	600	114.0	0.0	Open
P0877	N0879	N0880	50.01	600	114.0	0.0	Open
P0878	N0880	N0881	50.06	600	114.0	0.0	Open
P0879	N0881	N0882	50.02	600	114.0	0.0	Open
P0880	N0882	N0883	50.03	600	114.0	0.0	Open
P0881	N0883	N0884	50.02	600	114.0	0.0	Open
P0882	N0884	N0885	50.03	600	114.0	0.0	Open
P0883	N0885	N0886	50.02	600	114.0	0.0	Open
P0884	N0886	N0887	50.00	600	114.0	0.0	Open
P0885	N0887	N0888	50.05	600	114.0	0.0	Open
P0886	N0888	N0889	50.03	600	114.0	0.0	Open
P0887	N0889	N0890	50.03	600	114.0	0.0	Open
P0888	N0890	N0891	50.01	600	114.0	0.0	Open
P0889	N0891	N0892	50.04	600	114.0	0.0	Open
P0890	N0892	N0893	50.03	600	114.0	0.0	Open
P0891	N0893	N0894	50.03	600	114.0	0.0	Open
P0892	N0894	N0895	50.02	600	114.0	0.0	Open
P0893	N0895	N0896	50.00	600	114.0	0.0	Open
P0894	N0896	N0897	50.00	600	114.0	0.0	Open
P0895	N0897	N0898	50.01	600	114.0	0.0	Open
P0896	N0898	N0899	50.03	600	114.0	0.0	Open
P0897	N0899	N0900	50.05	600	114.0	0.0	Open
P0898	N0900	N0901	50.02	600	114.0	0.0	Open
P0899	N0901	N0902	50.04	600	114.0	0.0	Open
P0900	N0902	N0903	50.03	600	114.0	0.0	Open
P0901	N0903	N0904	50.04	600	114.0	0.0	Open
P0902	N0904	N0905	50.01	600	114.0	0.0	Open
P0903	N0905	N0906	50.03	600	114.0	0.0	Open
P0904	N0906	N0907	50.00	600	114.0	0.0	Open
P0905	N0907	N0908	50.00	600	114.0	0.0	Open
P0906	N0908	N0909	50.00	600	114.0	0.0	Open
P0907	N0909	N0910	50.00	600	114.0	0.0	Open
P0908	N0910	N0911	50.00	600	114.0	0.0	Open
P0909	N0911	N0912	50.00	600	114.0	0.0	Open
P0910	N0912	N0913	50.00	600	114.0	0.0	Open
P0911	N0913	N0914	50.00	600	114.0	0.0	Open
P0912	N0914	N0915	50.00	600	114.0	0.0	Open
P0913	N0915	N0916	50.00	600	114.0	0.0	Open
P0914	N0916	N0917	50.00	600	114.0	0.0	Open
P0915	N0917	N0918	50.01	600	114.0	0.0	Open
P0916	N0918	N0919	50.01	600	114.0	0.0	Open
P0917	N0919	N0920	50.03	600	114.0	0.0	Open
P0918	N0920	N0921	50.02	600	114.0	0.0	Open
P0919	N0921	N0922	50.01	600	114.0	0.0	Open
P0920	N0922	N0923	50.07	600	114.0	0.0	Open
P0921	N0923	N0924	50.03	600	114.0	0.0	Open
P0922	N0924	N0925	50.04	600	114.0	0.0	Open
P0923	N0925	N0926	50.05	600	114.0	0.0	Open
P0924	N0926	N0927	50.09	600	114.0	0.0	Open
P0925	N0927	N0928	50.04	600	114.0	0.0	Open
P0926	N0928	N0929	50.09	600	114.0	0.0	Open
P0927	N0929	N0930	50.13	600	114.0	0.0	Open
P0928	N0930	N0931	50.23	600	114.0	0.0	Open
P0929	N0931	N0932	50.15	600	114.0	0.0	Open
P0930	N0932	N0933	50.00	600	114.0	0.0	Open
P0931	N0933	N0934	50.40	600	114.0	0.0	Open
P0932	N0934	N0935	50.11	600	114.0	0.0	Open
P0933	N0935	N0936	49.32	600	114.0	0.0	Open
P0934	N0936	N0937	50.03	600	114.0	0.0	Open
P0935	N0937	N0938	50.03	600	114.0	0.0	Open
P0936	N0938	N0939	50.02	600	114.0	0.0	Open
P0937	N0939	N0940	50.02	600	114.0	0.0	Open
P0938	N0940	N0941	50.01	600	114.0	0.0	Open
P0939	N0941	N0942	50.00	600	114.0	0.0	Open
P0940	N0942	N0943	50.00	600	114.0	0.0	Open
P0941	N0943	N0944	50.00	600	114.0	0.0	Open
P0942	N0944	N0945	50.04	600	114.0	0.0	Open
P0943	N0945	N0946	50.00	600	114.0	0.0	Open
P0944	N0946	N0947	50.02	600	114.0	0.0	Open
P0945	N0947	N0948	50.03	600	114.0	0.0	Open
P0946	N0948	N0949	50.02	600	114.0	0.0	Open
P0947	N0949	N0950	50.03	600	114.0	0.0	Open
P0948	N0950	N0951	50.06	600	114.0	0.0	Open
P0949	N0951	N0952	50.03	600	114.0	0.0	Open
P0950	N0952	N0953	50.04	600	114.0	0.0	Open
P0951	N0953	N0954	50.02	600	114.0	0.0	Open
P0952	N0954	N0955	50.01	600	114.0	0.0	Open
P0953	N0955	N0956	50.01	600	114.0	0.0	Open
P0954	N0956	N0957	50.03	600	114.0	0.0	Open
P0955	N0957	N0958	50.01	600	114.0	0.0	Open
P0956	N0958	N0959	50.01	600	114.0	0.0	Open
P0957	N0959	N0960	50.00	600	114.0	0.0	Open
P0958	N0960	N0961	50.00	600	114.0	0.0	Open
P0959	N0961	N0962	50.00	600	114.0	0.0	Open
P0960	N0962	N0963	50.02	600	114.0	0.0	Open
P0961	N0963	N0964	50.00	600	114.0	0.0	Open
P0962	N0964	N0965	50.03	600	114.0	0.0	Open
P0963	N0965	N0966	50.04	600	114.0	0.0	Open
P0964	N0966	N0967	50.01	600	114.0	0.0	Open
P0965	N0967	N0968	50.06	600	114.0	0.0	Open
P0966	N0968	N0969	50.04	600	114.0	0.0	Open
P0967	N0969	N0970	50.05	600	114.0	0.0	Open
P0968	N0970	N0971	50.01	600	114.0	0.0	Open
P0969	N0971	N0972	50.04	600	114.0	0.0	Open
P0970	N0972	N0973	50.02	600	114.0	0.0	Open
P0971	N0973	N0974	50.04	600	114.0	0.0	Open
P0972	N0974	N0975	50.06	600	114.0	0.0	Open
P0973	N0975	N0976	50.00	600	114.0	0.0	Open
P0974	N0976	N0977	50.07	600	114.0	0.0	Open
P0975	N0977	N0978	50.02	600	114.0	0.0	Open
P0976	N0978	N0979	50.00	600	114.0	0.0	Open
P0977	N0979	N0980	50.00	600	114.0	0.0	Open
P0978	N0980	N0981	50.00	600	114.0	0.0	Open
P0979	N0981	N0982	50.00	600	114.0	0.0	Open
P0980	N0982	N0983	50.01	600	114.0	0.0	Open
P0981	N0983	N0984	50.00	600	114.0	0.0	Open
P0982	N0984	N0985	50.00	600	114.0	0.0	Open
P0983	N0985	N0986	50.00	600	114.0	0.0	Open
P0984	N0986	N0987	50.01	600	114.0	0.0	Open
P0985	N0987	N0988	50.00	600	114.0	0.0	Open
P0986	N0988	N0989	50.01	600	114.0	0.0	Open
P0987	N0989	N0990	50.02	600	114.0	0.0	Open
P0988	N0990	N0991	50.01	600	114.0	0.0	Open
P0989	N0991	N0992	50.01	600	114.0	0.0	Open
P0990	N0992	N0993	50.07	600	114.0	0.0	Open
P0991	N0993	N0994	50.00	600	114.0	0.0	Open
P0992	N0994	N0995	50.02	600	114.0	0.0	Open
P0993	N0995	N0996	50.00	600	114.0	0.0	Open
P0994	N0996	N0997	50.02	600	114.0	0.0	Open
P0995	N0997	N0998	50.01	600	114.0	0.0	Open
P0996	N0998	N0999	50.01	600	114.0	0.0	Open
P0997	N0999	N1000	50.01	600	114.0	0.0	Open
P0998	N1000	N1001	50.00	600	114.0	0.0	Open
P0999	N1001	N1002	50.00	600	114.0	0.0	Open
P1000	N1002	N1003	50.00	600	114.0	0.0	Open
P1001	N1003	N1004	50.00	600	114.0	0.0	Open
P1002	N1004	N1005	50.00	600	114.0	0.0	Open
P1003	N1005	N1006	50.00	600	114.0	0.0	Open
P1004	N1006	N1007	50.00	600	114.0	0.0	Open
P1005	N1007	N1008	50.00	600	114.0	0.0	Open
P1006	N1008	N1009	50.01	600	114.0	0.0	Open
P1007	N1009	N1010	50.00	600	114.0	0.0	Open
P1008	N1010	N1011	50.00	600	114.0	0.0	Open
P1009	N1011	N1012	50.00	600	114.0	0.0	Open
P1010	N1012	N1013	50.01	600	114.0	0.0	Open
P1011	N1013	N1014	50.00	600	114.0	0.0	Open
P1012	N1014	N1015	50.00	600	114.0	0.0	Open
P1013	N1015	N1016	50.01	600	114.0	0.0	Open
P1014	N1016	N1017	50.02	600	114.0	0.0	Open
P1015	N1017	N1018	49.83	600	114.0	0.0	Open
P1016	N1018	N1019	50.00	600	114.0	0.0	Open
P1017	N1019	N1020	50.04	600	114.0	0.0	Open
P1018	N1020	N1021	50.04	600	114.0	0.0	Open
P1019	N1021	N1022	50.02	600	114.0	0.0	Open
P1020	N1022	N1023	50.05	600	114.0	0.0	Open
P1021	N1023	N1024	50.07	600	114.0	0.0	Open
P1022	N1024	N1025	50.07	600	114.0	0.0	Open
P1023	N1025	N1026	50.02	600	114.0	0.0	Open
P1024	N1026	N1027	50.10	600	114.0	0.0	Open
P1025	N1027	N1028	50.08	600	114.0	0.0	Open
P1026	N1028	N1029	50.18	600	114.0	0.0	Open
P1027	N1029	N1030	50.07	600	114.0	0.0	Open
P1028	N1030	N1031	50.26	600	114.0	0.0	Open
P1029	N1031	N1032	50.02	600	114.0	0.0	Open
P1030	N1032	N1033	50.15	600	114.0	0.0	Open
P1031	N1033	N1034	50.06	600	114.0	0.0	Open
P1032	N1034	N1035	50.07	600	114.0	0.0	Open
P1033	N1035	N1036	50.18	600	114.0	0.0	Open
P1034	N1036	N1037	50.15	600	114.0	0.0	Open
P1035	N1037	N1038	50.15	600	114.0	0.0	Open
P1036	N1038	N1039	50.16	600	114.0	0.0	Open
P1037	N1039	N1040	50.13	600	114.0	0.0	Open
P1038	N1040	N1041	50.06	600	114.0	0.0	Open
P1039	N1041	N1042	50.11	600	114.0	0.0	Open
P1040	N1042	N1043	50.12	600	114.0	0.0	Open
P1041	N1043	N1044	50.00	600	114.0	0.0	Open
P1042	N1044	N1045	50.04	600	114.0	0.0	Open
P1043	N1045	N1046	50.04	600	114.0	0.0	Open
P1044	N1046	N1047	50.05	600	114.0	0.0	Open
P1045	N1047	N1048	50.00	600	114.0	0.0	Open
P1046	N1048	N1049	50.02	600	114.0	0.0	Open
P1047	N1049	N1050	50.00	600	114.0	0.0	Open
P1048	N1050	N1051	50.00	600	114.0	0.0	Open
P1049	N1051	N1052	50.00	600	114.0	0.0	Open
P1050	N1052	N1053	50.01	600	114.0	0.0	Open
P1051	N1053	N1054	50.02	600	114.0	0.0	Open
P1052	N1054	N1055	50.00	600	114.0	0.0	Open
P1053	N1055	N1056	50.01	600	114.0	0.0	Open
P1054	N1056	N1057	50.00	600	114.0	0.0	Open
P1055	N1057	N1058	50.03	600	114.0	0.0	Open
P1056	N1058	N1059	50.03	600	114.0	0.0	Open
P1057	N1059	N1060	50.00	600	114.0	0.0	Open
P1058	N1060	N1061	50.00	600	114.0	0.0	Open
P1059	N1061	N1062	50.00	600	114.0	0.0	Open
P1060	N1062	N1063	50.01	600	114.0	0.0	Open
P1061	N1063	N1064	50.00	600	114.0	0.0	Open
P1062	N1064	N1065	50.03	600	114.0	0.0	Open
P1063	N1065	N1066	50.01	600	114.0	0.0	Open
P1064	N1066	N1067	50.01	600	114.0	0.0	Open
P1065	N1067	N1068	50.00	600	114.0	0.0	Open
P1066	N1068	N1069	50.02	600	114.0	0.0	Open
P1067	N1069	N1070	50.04	600	114.0	0.0	Open
P1068	N1070	N1071	50.01	600	114.0	0.0	Open
P1069	N1071	N1072	50.02	600	114.0	0.0	Open
P1070	N1072	N1073	50.00	600	114.0	0.0	Open
P1071	N1073	N1074	50.00	600	114.0	0.0	Open
P1072	N1074	N1075	50.00	600	114.0	0.0	Open
P1073	N1075	N1076	50.00	600	114.0	0.0	Open
P1074	N1076	N1077	50.01	600	114.0	0.0	Open
P1075	N1077	N1078	50.00	600	114.0	0.0	Open
P1076	N1078	N1079	50.00	600	114.0	0.0	Open
P1077	N1079	N1080	50.01	600	114.0	0.0	Open
P1078	N1080	N1081	50.04	600	114.0	0.0	Open
P1079	N1081	N1082	50.07	600	114.0	0.0	Open
P1080	N1082	N1083	50.03	600	114.0	0.0	Open
P1081	N1083	N1084	50.12	600	114.0	0.0	Open
P1082	N1084	N1085	50.01	600	114.0	0.0	Open
P1083	N1085	N1086	50.09	600	114.0	0.0	Open
P1084	N1086	N1087	50.10	600	114.0	0.0	Open
P1085	N1087	N1088	50.01	600	114.0	0.0	Open
P1086	N1088	N1089	50.04	600	114.0	0.0	Open
P1087	N1089	N1090	50.02	600	114.0	0.0	Open
P1088	N1090	N1091	50.02	600	114.0	0.0	Open
P1089	N1091	N1092	50.01	600	114.0	0.0	Open
P1090	N1092	N1093	50.00	600	114.0	0.0	Open
P1091	N1093	N1094	50.01	600	114.0	0.0	Open
P1092	N1094	N1095	50.00	600	114.0	0.0	Open
P1093	N1095	N1096	50.00	600	114.0	0.0	Open
P1094	N1096	N1097	50.00	600	114.0	0.0	Open
P1095	N1097	N1098	50.01	600	114.0	0.0	Open
P1096	N1098	N1099	50.00	600	114.0	0.0	Open
P1097	N1099	N1100	50.01	600	114.0	0.0	Open
P1098	N1100	N1101	50.02	600	114.0	0.0	Open
P1099	N1101	N1102	50.00	600	114.0	0.0	Open
P1100	N1102	N1103	50.02	600	114.0	0.0	Open
P1101	N1103	N1104	50.02	600	114.0	0.0	Open
P1102	N1104	N1105	50.00	600	114.0	0.0	Open
P1103	N1105	N1106	50.01	600	114.0	0.0	Open
P1104	N1106	N1107	50.00	600	114.0	0.0	Open
P1105	N1107	N1108	50.00	600	114.0	0.0	Open
P1106	N1108	N1109	50.00	600	114.0	0.0	Open
P1107	N1109	N1110	50.00	600	114.0	0.0	Open
P1108	N1110	N1111	50.01	600	114.0	0.0	Open
P1109	N1111	N1112	50.00	600	114.0	0.0	Open
P1110	N1112	N1113	50.01	600	114.0	0.0	Open
P1111	N1113	N1114	50.01	600	114.0	0.0	Open
P1112	N1114	N1115	50.01	600	114.0	0.0	Open
P1113	N1115	N1116	50.00	600	114.0	0.0	Open
P1114	N1116	N1117	50.00	600	114.0	0.0	Open
P1115	N1117	N1118	50.02	600	114.0	0.0	Open
P1116	N1118	N1119	50.05	600	114.0	0.0	Open
P1117	N1119	N1120	50.01	600	114.0	0.0	Open
P1118	N1120	N1121	50.03	600	114.0	0.0	Open
P1119	N1121	N1122	50.04	600	114.0	0.0	Open
P1120	N1122	N1123	50.02	600	114.0	0.0	Open
P1121	N1123	N1124	50.02	600	114.0	0.0	Open
P1122	N1124	N1125	50.02	600	114.0	0.0	Open
P1123	N1125	N1126	50.00	600	114.0	0.0	Open
P1124	N1126	N1127	50.00	600	114.0	0.0	Open
P1125	N1127	N1128	50.01	600	114.0	0.0	Open
P1126	N1128	N1129	50.00	600	114.0	0.0	Open
P1127	N1129	N1130	50.00	600	114.0	0.0	Open
P1128	N1130	N1131	50.00	600	114.0	0.0	Open
P1129	N1131	N1132	50.00	600	114.0	0.0	Open
P1130	N1132	N1133	50.01	600	114.0	0.0	Open
P1131	N1133	N1134	50.02	600	114.0	0.0	Open
P1132	N1134	N1135	50.01	600	114.0	0.0	Open
P1133	N1135	N1136	50.32	600	114.0	0.0	Open
P1134	N1136	N1137	50.00	600	114.0	0.0	Open
P1135	N1137	N1138	50.41	600	114.0	0.0	Open
P1136	N1138	N1139	50.00	600	114.0	0.0	Open
P1137	N1139	N1140	50.21	600	114.0	0.0	Open
P1138	N1140	N1141	50.08	600	114.0	0.0	Open
P1139	N1141	N1142	50.06	600	114.0	0.0	Open
P1140	N1142	N1143	50.00	600	114.0	0.0	Open
P1141	N1143	N1144	50.00	600	114.0	0.0	Open
P1142	N1144	N1145	50.00	600	114.0	0.0	Open
P1143	N1145	N1146	50.00	600	114.0	0.0	Open
P1144	N1146	N1147	50.01	600	114.0	0.0	Open
P1145	N1147	N1148	50.00	600	114.0	0.0	Open
P1146	N1148	N1149	50.00	600	114.0	0.0	Open
P1147	N1149	N1150	50.00	600	114.0	0.0	Open
P1148	N1150	N1151	50.00	600	114.0	0.0	Open
P1149	N1151	N1152	50.00	600	114.0	0.0	Open
P1150	N1152	N1153	50.01	600	114.0	0.0	Open
P1151	N1153	N1154	50.00	600	114.0	0.0	Open
P1152	N1154	N1155	50.05	600	114.0	0.0	Open
P1153	N1155	N1156	50.02	600	114.0	0.0	Open
P1154	N1156	N1157	50.02	600	114.0	0.0	Open
P1155	N1157	N1158	50.01	600	114.0	0.0	Open
P1156	N1158	N1159	50.00	600	114.0	0.0	Open
P1157	N1159	N1160	50.00	600	114.0	0.0	Open
P1158	N1160	N1161	50.00	600	114.0	0.0	Open
P1159	N1161	N1162	50.00	600	114.0	0.0	Open
P1160	N1162	N1163	50.01	600	114.0	0.0	Open
P1161	N1163	N1164	50.00	600	114.0	0.0	Open
P1162	N1164	N1165	50.02	600	114.0	0.0	Open
P1163	N1165	N1166	50.06	600	114.0	0.0	Open
P1164	N1166	N1167	50.02	600	114.0	0.0	Open
P1165	N1167	N1168	50.00	600	114.0	0.0	Open
P1166	N1168	N1169	50.09	600	114.0	0.0	Open
P1167	N1169	N1170	50.04	600	114.0	0.0	Open
P1168	N1170	N1171	50.00	600	114.0	0.0	Open
P1169	N1171	N1172	50.01	600	114.0	0.0	Open
P1170	N1172	N1173	50.00	600	114.0	0.0	Open
P1171	N1173	N1174	50.01	600	114.0	0.0	Open
P1172	N1174	N1175	50.04	600	114.0	0.0	Open
P1173	N1175	N1176	50.01	600	114.0	0.0	Open
P1174	N1176	N1177	50.02	600	114.0	0.0	Open
P1175	N1177	N1178	50.01	600	114.0	0.0	Open
P1176	N1178	N1179	50.01	600	114.0	0.0	Open
P1177	N1179	N1180	50.01	600	114.0	0.0	Open
P1178	N1180	N1181	50.05	600	114.0	0.0	Open
P1179	N1181	N1182	50.01	600	114.0	0.0	Open
P1180	N1182	N1183	50.05	600	114.0	0.0	Open
P1181	N1183	N1184	50.00	600	114.0	0.0	Open
GAP-BPS-approach_A	N1184	NKANGAMO_BPS_IN	211.52	600	114.0	0.0	Open
GAP-BPS-approach_B	NKANGAMO_BPS_DIS	N1185	153.17	600	114.0	0.0	Open
P1182	N1185	N1186	20.00	600	114.0	0.0	Open
P1183	N1186	N1187	20.02	600	114.0	0.0	Open
P1184	N1187	N1188	20.01	600	114.0	0.0	Open
P1185	N1188	N1189	20.02	600	114.0	0.0	Open
P1186	N1189	N1190	20.02	600	114.0	0.0	Open
P1187	N1190	N1191	20.00	600	114.0	0.0	Open
P1188	N1191	N1192	20.01	600	114.0	0.0	Open
P1189	N1192	N1193	20.00	600	114.0	0.0	Open
P1190	N1193	N1194	20.01	600	114.0	0.0	Open
P1191	N1194	N1195	20.01	600	114.0	0.0	Open
P1192	N1195	N1196	20.01	600	114.0	0.0	Open
P1193	N1196	N1197	20.03	600	114.0	0.0	Open
P1194	N1197	N1198	20.00	600	114.0	0.0	Open
P1195	N1198	N1199	20.02	600	114.0	0.0	Open
P1196	N1199	N1200	20.02	600	114.0	0.0	Open
P1197	N1200	N1201	20.00	600	114.0	0.0	Open
P1198	N1201	N1202	20.01	600	114.0	0.0	Open
P1199	N1202	N1203	20.01	600	114.0	0.0	Open
P1200	N1203	N1204	20.02	600	114.0	0.0	Open
P1201	N1204	N1205	20.00	600	114.0	0.0	Open
P1202	N1205	N1206	20.03	600	114.0	0.0	Open
P1203	N1206	N1207	20.01	600	114.0	0.0	Open
P1204	N1207	N1208	20.03	600	114.0	0.0	Open
P1205	N1208	N1209	20.00	600	114.0	0.0	Open
P1206	N1209	N1210	20.04	600	114.0	0.0	Open
P1207	N1210	N1211	20.01	600	114.0	0.0	Open
P1208	N1211	N1212	20.01	600	114.0	0.0	Open
P1209	N1212	N1213	20.00	600	114.0	0.0	Open
P1210	N1213	N1214	20.02	600	114.0	0.0	Open
P1211	N1214	N1215	20.00	600	114.0	0.0	Open
P1212	N1215	N1216	20.02	600	114.0	0.0	Open
P1213	N1216	N1217	20.01	600	114.0	0.0	Open
P1214	N1217	N1218	20.00	600	114.0	0.0	Open
P1215	N1218	N1219	20.00	600	114.0	0.0	Open
P1216	N1219	N1220	20.00	600	114.0	0.0	Open
P1217	N1220	N1221	20.00	600	114.0	0.0	Open
P1218	N1221	N1222	20.00	600	114.0	0.0	Open
P1219	N1222	N1223	20.00	600	114.0	0.0	Open
P1220	N1223	N1224	20.00	600	114.0	0.0	Open
P1221	N1224	N1225	20.00	600	114.0	0.0	Open
P1222	N1225	N1226	20.00	600	114.0	0.0	Open
P1223	N1226	N1227	20.00	600	114.0	0.0	Open
P1224	N1227	N1228	20.00	600	114.0	0.0	Open
P1225	N1228	N1229	20.00	600	114.0	0.0	Open
P1226	N1229	N1230	20.00	600	114.0	0.0	Open
P1227	N1230	N1231	20.00	600	114.0	0.0	Open
P1228	N1231	N1232	20.00	600	114.0	0.0	Open
P1229	N1232	N1233	19.18	600	114.0	0.0	Open
P1230	N1233	N1234	20.00	600	114.0	0.0	Open
P1231	N1234	N1235	20.00	600	114.0	0.0	Open
P1232	N1235	N1236	20.00	600	114.0	0.0	Open
P1233	N1236	N1237	20.00	600	114.0	0.0	Open
P1234	N1237	N1238	20.00	600	114.0	0.0	Open
P1235	N1238	N1239	20.01	600	114.0	0.0	Open
P1236	N1239	N1240	20.00	600	114.0	0.0	Open
P1237	N1240	N1241	20.00	600	114.0	0.0	Open
P1238	N1241	N1242	20.01	600	114.0	0.0	Open
P1239	N1242	N1243	20.00	600	114.0	0.0	Open
P1240	N1243	N1244	20.01	600	114.0	0.0	Open
P1241	N1244	N1245	20.00	600	114.0	0.0	Open
P1242	N1245	N1246	20.00	600	114.0	0.0	Open
P1243	N1246	N1247	20.00	600	114.0	0.0	Open
P1244	N1247	N1248	20.00	600	114.0	0.0	Open
P1245	N1248	N1249	20.01	600	114.0	0.0	Open
P1246	N1249	N1250	20.00	600	114.0	0.0	Open
P1247	N1250	N1251	20.00	600	114.0	0.0	Open
P1248	N1251	N1252	20.01	600	114.0	0.0	Open
P1249	N1252	N1253	20.00	600	114.0	0.0	Open
P1250	N1253	N1254	20.01	600	114.0	0.0	Open
P1251	N1254	N1255	20.00	600	114.0	0.0	Open
P1252	N1255	N1256	20.01	600	114.0	0.0	Open
P1253	N1256	N1257	20.01	600	114.0	0.0	Open
P1254	N1257	N1258	20.01	600	114.0	0.0	Open
P1255	N1258	N1259	20.01	600	114.0	0.0	Open
P1256	N1259	N1260	20.01	600	114.0	0.0	Open
P1257	N1260	N1261	20.03	600	114.0	0.0	Open
P1258	N1261	N1262	20.00	600	114.0	0.0	Open
P1259	N1262	N1263	20.03	600	114.0	0.0	Open
P1260	N1263	N1264	20.04	600	114.0	0.0	Open
P1261	N1264	N1265	20.02	600	114.0	0.0	Open
P1262	N1265	N1266	20.00	600	114.0	0.0	Open
P1263	N1266	N1267	20.02	600	114.0	0.0	Open
P1264	N1267	N1268	20.05	600	114.0	0.0	Open
P1265	N1268	N1269	20.00	600	114.0	0.0	Open
P1266	N1269	N1270	20.00	600	114.0	0.0	Open
P1267	N1270	N1271	20.00	600	114.0	0.0	Open
P1268	N1271	N1272	20.00	600	114.0	0.0	Open
P1269	N1272	N1273	20.01	600	114.0	0.0	Open
P1270	N1273	N1274	20.00	600	114.0	0.0	Open
P1271	N1274	N1275	20.00	600	114.0	0.0	Open
P1272	N1275	N1276	20.01	600	114.0	0.0	Open
P1273	N1276	N1277	20.00	600	114.0	0.0	Open
P1274	N1277	N1278	20.03	600	114.0	0.0	Open
P1275	N1278	N1279	20.04	600	114.0	0.0	Open
P1276	N1279	N1280	20.00	600	114.0	0.0	Open
P1277	N1280	N1281	20.06	600	114.0	0.0	Open
P1278	N1281	N1282	20.01	600	114.0	0.0	Open
P1279	N1282	N1283	20.00	600	114.0	0.0	Open
P1280	N1283	N1284	20.02	600	114.0	0.0	Open
P1281	N1284	N1285	20.02	600	114.0	0.0	Open
P1282	N1285	N1286	20.00	600	114.0	0.0	Open
P1283	N1286	N1287	20.01	600	114.0	0.0	Open
P1284	N1287	N1288	20.02	600	114.0	0.0	Open
P1285	N1288	N1289	20.00	600	114.0	0.0	Open
P1286	N1289	N1290	20.00	600	114.0	0.0	Open
P1287	N1290	N1291	20.00	600	114.0	0.0	Open
P1288	N1291	N1292	20.00	600	114.0	0.0	Open
P1289	N1292	N1293	20.00	600	114.0	0.0	Open
P1290	N1293	N1294	20.00	600	114.0	0.0	Open
P1291	N1294	N1295	20.00	600	114.0	0.0	Open
P1292	N1295	N1296	20.00	600	114.0	0.0	Open
P1293	N1296	N1297	20.00	600	114.0	0.0	Open
P1294	N1297	N1298	20.00	600	114.0	0.0	Open
P1295	N1298	N1299	20.00	600	114.0	0.0	Open
P1296	N1299	N1300	20.00	600	114.0	0.0	Open
P1297	N1300	N1301	20.00	600	114.0	0.0	Open
P1298	N1301	N1302	20.00	600	114.0	0.0	Open
P1299	N1302	N1303	20.00	600	114.0	0.0	Open
P1300	N1303	N1304	20.00	600	114.0	0.0	Open
P1301	N1304	N1305	20.01	600	114.0	0.0	Open
P1302	N1305	N1306	20.00	600	114.0	0.0	Open
P1303	N1306	N1307	20.00	600	114.0	0.0	Open
P1304	N1307	N1308	20.00	600	114.0	0.0	Open
P1305	N1308	N1309	20.01	600	114.0	0.0	Open
P1306	N1309	N1310	20.00	600	114.0	0.0	Open
P1307	N1310	N1311	20.00	600	114.0	0.0	Open
P1308	N1311	N1312	20.00	600	114.0	0.0	Open
P1309	N1312	N1313	20.00	600	114.0	0.0	Open
P1310	N1313	N1314	20.01	600	114.0	0.0	Open
P1311	N1314	N1315	20.00	600	114.0	0.0	Open
P1312	N1315	N1316	20.00	600	114.0	0.0	Open
P1313	N1316	N1317	20.00	600	114.0	0.0	Open
P1314	N1317	N1318	20.00	600	114.0	0.0	Open
P1315	N1318	N1319	20.00	600	114.0	0.0	Open
P1316	N1319	N1320	20.01	600	114.0	0.0	Open
P1317	N1320	N1321	20.00	600	114.0	0.0	Open
P1318	N1321	N1322	20.00	600	114.0	0.0	Open
P1319	N1322	N1323	20.00	600	114.0	0.0	Open
P1320	N1323	N1324	20.00	600	114.0	0.0	Open
P1321	N1324	N1325	20.00	600	114.0	0.0	Open
P1322	N1325	N1326	20.00	600	114.0	0.0	Open
P1323	N1326	N1327	20.00	600	114.0	0.0	Open
P1324	N1327	N1328	20.00	600	114.0	0.0	Open
P1325	N1328	N1329	20.00	600	114.0	0.0	Open
P1326	N1329	N1330	20.00	600	114.0	0.0	Open
P1327	N1330	N1331	20.01	600	114.0	0.0	Open
P1328	N1331	N1332	20.04	600	114.0	0.0	Open
P1329	N1332	N1333	20.00	600	114.0	0.0	Open
P1330	N1333	N1334	20.09	600	114.0	0.0	Open
P1331	N1334	N1335	20.05	600	114.0	0.0	Open
P1332	N1335	N1336	20.00	600	114.0	0.0	Open
P1333	N1336	N1337	20.04	600	114.0	0.0	Open
P1334	N1337	N1338	20.04	600	114.0	0.0	Open
P1335	N1338	N1339	20.01	600	114.0	0.0	Open
P1336	N1339	N1340	20.03	600	114.0	0.0	Open
P1337	N1340	N1341	20.00	600	114.0	0.0	Open
P1338	N1341	N1342	20.02	600	114.0	0.0	Open
P1339	N1342	N1343	20.00	600	114.0	0.0	Open
P1340	N1343	N1344	20.01	600	114.0	0.0	Open
P1341	N1344	N1345	20.00	600	114.0	0.0	Open
P1342	N1345	N1346	20.00	600	114.0	0.0	Open
P1343	N1346	N1347	20.00	600	114.0	0.0	Open
P1344	N1347	N1348	20.00	600	114.0	0.0	Open
P1345	N1348	N1349	20.00	600	114.0	0.0	Open
P1346	N1349	N1350	20.00	600	114.0	0.0	Open
P1347	N1350	N1351	20.00	600	114.0	0.0	Open
P1348	N1351	N1352	20.00	600	114.0	0.0	Open
P1349	N1352	N1353	20.02	600	114.0	0.0	Open
P1350	N1353	N1354	20.01	600	114.0	0.0	Open
P1351	N1354	N1355	20.00	600	114.0	0.0	Open
P1352	N1355	N1356	20.01	600	114.0	0.0	Open
P1353	N1356	N1357	20.00	600	114.0	0.0	Open
P1354	N1357	N1358	20.00	600	114.0	0.0	Open
P1355	N1358	N1359	20.03	600	114.0	0.0	Open
P1356	N1359	N1360	20.01	600	114.0	0.0	Open
P1357	N1360	N1361	20.01	600	114.0	0.0	Open
P1358	N1361	N1362	20.04	600	114.0	0.0	Open
P1359	N1362	N1363	20.03	600	114.0	0.0	Open
P1360	N1363	N1364	20.01	600	114.0	0.0	Open
P1361	N1364	N1365	20.00	600	114.0	0.0	Open
P1362	N1365	N1366	20.00	600	114.0	0.0	Open
P1363	N1366	N1367	20.00	600	114.0	0.0	Open
P1364	N1367	N1368	20.00	600	114.0	0.0	Open
P1365	N1368	N1369	20.02	600	114.0	0.0	Open
P1366	N1369	N1370	20.01	600	114.0	0.0	Open
P1367	N1370	N1371	20.00	600	114.0	0.0	Open
P1368	N1371	N1372	20.00	600	114.0	0.0	Open
P1369	N1372	N1373	20.02	600	114.0	0.0	Open
P1370	N1373	N1374	20.00	600	114.0	0.0	Open
P1371	N1374	N1375	20.02	600	114.0	0.0	Open
P1372	N1375	N1376	20.00	600	114.0	0.0	Open
P1373	N1376	N1377	20.02	600	114.0	0.0	Open
P1374	N1377	N1378	20.04	600	114.0	0.0	Open
P1375	N1378	N1379	20.11	600	114.0	0.0	Open
P1376	N1379	N1380	20.04	600	114.0	0.0	Open
P1377	N1380	N1381	20.05	600	114.0	0.0	Open
P1378	N1381	N1382	20.01	600	114.0	0.0	Open
P1379	N1382	N1383	20.00	600	114.0	0.0	Open
P1380	N1383	N1384	20.03	600	114.0	0.0	Open
P1381	N1384	N1385	20.02	600	114.0	0.0	Open
P1382	N1385	N1386	20.00	600	114.0	0.0	Open
P1383	N1386	N1387	20.02	600	114.0	0.0	Open
P1384	N1387	N1388	20.02	600	114.0	0.0	Open
P1385	N1388	N1389	20.00	600	114.0	0.0	Open
P1386	N1389	N1390	20.00	600	114.0	0.0	Open
P1387	N1390	N1391	20.01	600	114.0	0.0	Open
P1388	N1391	N1392	20.00	600	114.0	0.0	Open
P1389	N1392	N1393	20.00	600	114.0	0.0	Open
P1390	N1393	N1394	20.00	600	114.0	0.0	Open
P1391	N1394	N1395	20.00	600	114.0	0.0	Open
P1392	N1395	N1396	20.00	600	114.0	0.0	Open
P1393	N1396	N1397	20.01	600	114.0	0.0	Open
P1394	N1397	N1398	20.01	600	114.0	0.0	Open
P1395	N1398	N1399	20.01	600	114.0	0.0	Open
P1396	N1399	N1400	20.02	600	114.0	0.0	Open
P1397	N1400	N1401	20.00	600	114.0	0.0	Open
P1398	N1401	N1402	20.00	600	114.0	0.0	Open
P1399	N1402	N1403	20.07	600	114.0	0.0	Open
P1400	N1403	N1404	20.01	600	114.0	0.0	Open
P1401	N1404	N1405	20.00	600	114.0	0.0	Open
P1402	N1405	N1406	20.04	600	114.0	0.0	Open
P1403	N1406	N1407	20.00	600	114.0	0.0	Open
P1404	N1407	N1408	20.03	600	114.0	0.0	Open
P1405	N1408	N1409	20.03	600	114.0	0.0	Open
P1406	N1409	N1410	20.00	600	114.0	0.0	Open
P1407	N1410	N1411	20.01	600	114.0	0.0	Open
P1408	N1411	N1412	20.00	600	114.0	0.0	Open
P1409	N1412	N1413	20.07	600	114.0	0.0	Open
P1410	N1413	N1414	20.01	600	114.0	0.0	Open
P1411	N1414	N1415	20.04	600	114.0	0.0	Open
P1412	N1415	N1416	20.04	600	114.0	0.0	Open
P1413	N1416	N1417	20.00	600	114.0	0.0	Open
P1414	N1417	N1418	20.08	600	114.0	0.0	Open
P1415	N1418	N1419	20.05	600	114.0	0.0	Open
P1416	N1419	N1420	20.00	600	114.0	0.0	Open
P1417	N1420	N1421	20.03	600	114.0	0.0	Open
P1418	N1421	N1422	20.02	600	114.0	0.0	Open
P1419	N1422	N1423	20.00	600	114.0	0.0	Open
P1420	N1423	N1424	20.03	600	114.0	0.0	Open
P1421	N1424	N1425	20.04	600	114.0	0.0	Open
P1422	N1425	N1426	20.01	600	114.0	0.0	Open
P1423	N1426	N1427	20.01	600	114.0	0.0	Open
P1424	N1427	N1428	20.00	600	114.0	0.0	Open
P1425	N1428	N1429	20.01	600	114.0	0.0	Open
P1426	N1429	N1430	20.02	600	114.0	0.0	Open
P1427	N1430	N1431	20.01	600	114.0	0.0	Open
P1428	N1431	N1432	20.01	600	114.0	0.0	Open
P1429	N1432	N1433	20.01	600	114.0	0.0	Open
P1430	N1433	N1434	20.03	600	114.0	0.0	Open
P1431	N1434	N1435	20.00	600	114.0	0.0	Open
P1432	N1435	N1436	20.01	600	114.0	0.0	Open
P1433	N1436	N1437	20.01	600	114.0	0.0	Open
P1434	N1437	N1438	20.00	600	114.0	0.0	Open
P1435	N1438	N1439	20.01	600	114.0	0.0	Open
P1436	N1439	N1440	20.00	600	114.0	0.0	Open
P1437	N1440	N1441	20.00	600	114.0	0.0	Open
P1438	N1441	N1442	20.00	600	114.0	0.0	Open
P1439	N1442	N1443	20.00	600	114.0	0.0	Open
P1440	N1443	N1444	20.01	600	114.0	0.0	Open
P1441	N1444	N1445	20.01	600	114.0	0.0	Open
P1442	N1445	N1446	20.01	600	114.0	0.0	Open
P1443	N1446	N1447	20.02	600	114.0	0.0	Open
P1444	N1447	N1448	20.03	600	114.0	0.0	Open
P1445	N1448	N1449	20.00	600	114.0	0.0	Open
P1446	N1449	N1450	20.07	600	114.0	0.0	Open
P1447	N1450	N1451	20.01	600	114.0	0.0	Open
P1448	N1451	N1452	20.04	600	114.0	0.0	Open
P1449	N1452	N1453	20.02	600	114.0	0.0	Open
P1450	N1453	N1454	20.03	600	114.0	0.0	Open
P1451	N1454	N1455	20.05	600	114.0	0.0	Open
P1452	N1455	N1456	20.04	600	114.0	0.0	Open
P1453	N1456	N1457	20.06	600	114.0	0.0	Open
P1454	N1457	N1458	20.00	600	114.0	0.0	Open
P1455	N1458	N1459	20.01	600	114.0	0.0	Open
P1456	N1459	N1460	20.20	600	114.0	0.0	Open
P1457	N1460	N1461	20.02	600	114.0	0.0	Open
P1458	N1461	N1462	20.01	600	114.0	0.0	Open
P1459	N1462	N1463	20.00	600	114.0	0.0	Open
P1460	N1463	N1464	20.00	600	114.0	0.0	Open
P1461	N1464	N1465	20.01	600	114.0	0.0	Open
P1462	N1465	N1466	20.14	600	114.0	0.0	Open
P1463	N1466	N1467	20.00	600	114.0	0.0	Open
P1464	N1467	N1468	20.02	600	114.0	0.0	Open
P1465	N1468	N1469	20.02	600	114.0	0.0	Open
P1466	N1469	N1470	20.00	600	114.0	0.0	Open
P1467	N1470	N1471	20.03	600	114.0	0.0	Open
P1468	N1471	N1472	20.04	600	114.0	0.0	Open
P1469	N1472	N1473	20.06	600	114.0	0.0	Open
P1470	N1473	N1474	20.00	600	114.0	0.0	Open
P1471	N1474	N1475	20.02	600	114.0	0.0	Open
P1472	N1475	N1476	20.01	600	114.0	0.0	Open
P1473	N1476	N1477	20.01	600	114.0	0.0	Open
P1474	N1477	N1478	20.00	600	114.0	0.0	Open
P1475	N1478	N1479	20.00	600	114.0	0.0	Open
P1476	N1479	N1480	20.02	600	114.0	0.0	Open
P1477	N1480	N1481	20.10	600	114.0	0.0	Open
P1478	N1481	N1482	20.12	600	114.0	0.0	Open
P1479	N1482	N1483	20.01	600	114.0	0.0	Open
P1480	N1483	N1484	20.07	600	114.0	0.0	Open
P1481	N1484	N1485	20.00	600	114.0	0.0	Open
P1482	N1485	N1486	20.00	600	114.0	0.0	Open
P1483	N1486	N1487	20.00	600	114.0	0.0	Open
P1484	N1487	N1488	20.05	600	114.0	0.0	Open
P1485	N1488	N1489	20.11	600	114.0	0.0	Open
P1486	N1489	N1490	20.00	600	114.0	0.0	Open
P1487	N1490	N1491	20.02	600	114.0	0.0	Open
P1488	N1491	N1492	20.01	600	114.0	0.0	Open
P1489	N1492	N1493	20.04	600	114.0	0.0	Open
P1490	N1493	N1494	20.02	600	114.0	0.0	Open
P1491	N1494	N1495	20.07	600	114.0	0.0	Open
P1492	N1495	N1496	20.03	600	114.0	0.0	Open
P1493	N1496	N1497	20.03	600	114.0	0.0	Open
P1494	N1497	N1498	20.01	600	114.0	0.0	Open
P1495	N1498	N1499	20.00	600	114.0	0.0	Open
P1496	N1499	N1500	20.00	600	114.0	0.0	Open
P1497	N1500	N1501	20.00	600	114.0	0.0	Open
P1498	N1501	N1502	20.02	600	114.0	0.0	Open
P1499	N1502	N1503	20.09	600	114.0	0.0	Open
P1500	N1503	N1504	20.03	600	114.0	0.0	Open
P1501	N1504	N1505	20.06	600	114.0	0.0	Open
P1502	N1505	N1506	20.07	600	114.0	0.0	Open
P1503	N1506	N1507	20.05	600	114.0	0.0	Open
P1504	N1507	N1508	20.12	600	114.0	0.0	Open
P1505	N1508	N1509	20.04	600	114.0	0.0	Open
P1506	N1509	N1510	20.03	600	114.0	0.0	Open
P1507	N1510	N1511	20.19	600	114.0	0.0	Open
P1508	N1511	N1512	20.05	600	114.0	0.0	Open
P1509	N1512	N1513	20.04	600	114.0	0.0	Open
P1510	N1513	N1514	20.00	600	114.0	0.0	Open
P1511	N1514	N1515	20.01	600	114.0	0.0	Open
P1512	N1515	N1516	20.02	600	114.0	0.0	Open
P1513	N1516	N1517	20.00	600	114.0	0.0	Open
P1514	N1517	N1518	20.01	600	114.0	0.0	Open
P1515	N1518	N1519	20.00	600	114.0	0.0	Open
P1516	N1519	N1520	20.01	600	114.0	0.0	Open
P1517	N1520	N1521	20.00	600	114.0	0.0	Open
P1518	N1521	N1522	20.23	600	114.0	0.0	Open
P1519	N1522	N1523	20.00	600	114.0	0.0	Open
P1520	N1523	N1524	20.00	600	114.0	0.0	Open
P1521	N1524	N1525	20.00	600	114.0	0.0	Open
P1522	N1525	N1526	20.00	600	114.0	0.0	Open
P1523	N1526	N1527	20.00	600	114.0	0.0	Open
P1524	N1527	N1528	19.23	600	114.0	0.0	Open
P1525	N1528	N1529	20.05	600	114.0	0.0	Open
P1526	N1529	N1530	20.00	600	114.0	0.0	Open
P1527	N1530	N1531	20.06	600	114.0	0.0	Open
P1528	N1531	N1532	20.01	600	114.0	0.0	Open
P1529	N1532	N1533	20.01	600	114.0	0.0	Open
P1530	N1533	N1534	20.02	600	114.0	0.0	Open
P1531	N1534	N1535	20.01	600	114.0	0.0	Open
P1532	N1535	N1536	20.04	600	114.0	0.0	Open
P1533	N1536	N1537	20.01	600	114.0	0.0	Open
P1534	N1537	N1538	20.02	600	114.0	0.0	Open
P1535	N1538	N1539	20.00	600	114.0	0.0	Open
P1536	N1539	N1540	20.01	600	114.0	0.0	Open
P1537	N1540	N1541	20.00	600	114.0	0.0	Open
P1538	N1541	N1542	20.02	600	114.0	0.0	Open
P1539	N1542	N1543	20.00	600	114.0	0.0	Open
P1540	N1543	N1544	20.00	600	114.0	0.0	Open
P1541	N1544	N1545	20.04	600	114.0	0.0	Open
P1542	N1545	N1546	20.02	600	114.0	0.0	Open
P1543	N1546	N1547	20.24	600	114.0	0.0	Open
P1544	N1547	N1548	20.00	600	114.0	0.0	Open
P1545	N1548	N1549	20.08	600	114.0	0.0	Open
P1546	N1549	N1550	20.10	600	114.0	0.0	Open
P1547	N1550	N1551	20.05	600	114.0	0.0	Open
P1548	N1551	N1552	20.05	600	114.0	0.0	Open
P1549	N1552	N1553	20.01	600	114.0	0.0	Open
P1550	N1553	N1554	20.04	600	114.0	0.0	Open
P1551	N1554	N1555	20.13	600	114.0	0.0	Open
P1552	N1555	N1556	20.03	600	114.0	0.0	Open
P1553	N1556	N1557	20.08	600	114.0	0.0	Open
P1554	N1557	N1558	20.11	600	114.0	0.0	Open
P1555	N1558	N1559	20.03	600	114.0	0.0	Open
P1556	N1559	N1560	20.05	600	114.0	0.0	Open
P1557	N1560	N1561	20.02	600	114.0	0.0	Open
P1558	N1561	N1562	20.06	600	114.0	0.0	Open
P1559	N1562	N1563	20.01	600	114.0	0.0	Open
P1560	N1563	N1564	20.03	600	114.0	0.0	Open
P1561	N1564	N1565	20.02	600	114.0	0.0	Open
P1562	N1565	N1566	20.02	600	114.0	0.0	Open
P1563	N1566	N1567	20.00	600	114.0	0.0	Open
P1564	N1567	N1568	20.03	600	114.0	0.0	Open
P1565	N1568	N1569	20.00	600	114.0	0.0	Open
P1566	N1569	N1570	20.02	600	114.0	0.0	Open
P1567	N1570	N1571	20.01	600	114.0	0.0	Open
P1568	N1571	N1572	20.00	600	114.0	0.0	Open
P1569	N1572	N1573	20.01	600	114.0	0.0	Open
P1570	N1573	N1574	20.01	600	114.0	0.0	Open
P1571	N1574	N1575	20.00	600	114.0	0.0	Open
P1572	N1575	N1576	20.00	600	114.0	0.0	Open
P1573	N1576	N1577	20.00	600	114.0	0.0	Open
P1574	N1577	N1578	20.01	600	114.0	0.0	Open
P1575	N1578	N1579	20.00	600	114.0	0.0	Open
P1576	N1579	N1580	20.01	600	114.0	0.0	Open
P1577	N1580	N1581	20.00	600	114.0	0.0	Open
P1578	N1581	N1582	20.00	600	114.0	0.0	Open
P1579	N1582	N1583	20.01	600	114.0	0.0	Open
P1580	N1583	N1584	20.00	600	114.0	0.0	Open
P1581	N1584	N1585	20.01	600	114.0	0.0	Open
P1582	N1585	N1586	20.01	600	114.0	0.0	Open
P1583	N1586	N1587	20.00	600	114.0	0.0	Open
P1584	N1587	N1588	20.00	600	114.0	0.0	Open
P1585	N1588	N1589	20.01	600	114.0	0.0	Open
P1586	N1589	N1590	20.00	600	114.0	0.0	Open
P1587	N1590	N1591	20.00	600	114.0	0.0	Open
P1588	N1591	N1592	20.00	600	114.0	0.0	Open
P1589	N1592	N1593	20.00	600	114.0	0.0	Open
P1590	N1593	N1594	20.01	600	114.0	0.0	Open
P1591	N1594	N1595	20.00	600	114.0	0.0	Open
P1592	N1595	N1596	20.00	600	114.0	0.0	Open
P1593	N1596	N1597	20.01	600	114.0	0.0	Open
P1594	N1597	N1598	20.00	600	114.0	0.0	Open
P1595	N1598	N1599	20.06	600	114.0	0.0	Open
P1596	N1599	N1600	20.05	600	114.0	0.0	Open
P1597	N1600	N1601	20.00	600	114.0	0.0	Open
P1598	N1601	N1602	20.01	600	114.0	0.0	Open
P1599	N1602	N1603	20.04	600	114.0	0.0	Open
P1600	N1603	N1604	20.02	600	114.0	0.0	Open
P1601	N1604	N1605	20.01	600	114.0	0.0	Open
P1602	N1605	N1606	20.00	600	114.0	0.0	Open
P1603	N1606	N1607	20.00	600	114.0	0.0	Open
P1604	N1607	N1608	20.02	600	114.0	0.0	Open
P1605	N1608	N1609	20.01	600	114.0	0.0	Open
P1606	N1609	N1610	20.07	600	114.0	0.0	Open
P1607	N1610	N1611	20.00	600	114.0	0.0	Open
P1608	N1611	N1612	20.02	600	114.0	0.0	Open
P1609	N1612	N1613	20.03	600	114.0	0.0	Open
P1610	N1613	N1614	20.00	600	114.0	0.0	Open
P1611	N1614	N1615	20.03	600	114.0	0.0	Open
P1612	N1615	N1616	20.00	600	114.0	0.0	Open
P1613	N1616	N1617	20.02	600	114.0	0.0	Open
P1614	N1617	N1618	20.03	600	114.0	0.0	Open
P1615	N1618	N1619	20.02	600	114.0	0.0	Open
P1616	N1619	N1620	20.02	600	114.0	0.0	Open
P1617	N1620	N1621	20.02	600	114.0	0.0	Open
P1618	N1621	N1622	20.01	600	114.0	0.0	Open
P1619	N1622	N1623	20.02	600	114.0	0.0	Open
P1620	N1623	N1624	20.02	600	114.0	0.0	Open
P1621	N1624	N1625	20.00	600	114.0	0.0	Open
P1622	N1625	N1626	20.02	600	114.0	0.0	Open
P1623	N1626	N1627	20.02	600	114.0	0.0	Open
P1624	N1627	N1628	20.00	600	114.0	0.0	Open
P1625	N1628	N1629	20.01	600	114.0	0.0	Open
P1626	N1629	N1630	20.02	600	114.0	0.0	Open
P1627	N1630	N1631	20.02	600	114.0	0.0	Open
P1628	N1631	N1632	20.00	600	114.0	0.0	Open
P1629	N1632	N1633	20.03	600	114.0	0.0	Open
P1630	N1633	N1634	20.00	600	114.0	0.0	Open
P1631	N1634	N1635	20.01	600	114.0	0.0	Open
P1632	N1635	N1636	20.01	600	114.0	0.0	Open
P1633	N1636	N1637	20.01	600	114.0	0.0	Open
P1634	N1637	N1638	20.00	600	114.0	0.0	Open
P1635	N1638	N1639	20.02	600	114.0	0.0	Open
P1636	N1639	N1640	20.03	600	114.0	0.0	Open
P1637	N1640	N1641	15.81	600	114.0	0.0	Open
P1638	N1641	N1642	20.04	600	114.0	0.0	Open
P1639	N1642	N1643	20.00	600	114.0	0.0	Open
P1640	N1643	N1644	20.00	600	114.0	0.0	Open
P1641	N1644	N1645	20.06	600	114.0	0.0	Open
P1642	N1645	N1646	20.01	600	114.0	0.0	Open
P1643	N1646	N1647	20.02	600	114.0	0.0	Open
P1644	N1647	N1648	20.03	600	114.0	0.0	Open
P1645	N1648	N1649	20.00	600	114.0	0.0	Open
P1646	N1649	N1650	20.00	600	114.0	0.0	Open
P1647	N1650	N1651	20.22	600	114.0	0.0	Open
P1648	N1651	N1652	20.00	600	114.0	0.0	Open
P1649	N1652	N1653	20.01	600	114.0	0.0	Open
P1650	N1653	N1654	20.06	600	114.0	0.0	Open
P1651	N1654	N1655	20.02	600	114.0	0.0	Open
P1652	N1655	N1656	20.00	600	114.0	0.0	Open
P1653	N1656	N1657	20.02	600	114.0	0.0	Open
P1654	N1657	N1658	20.05	600	114.0	0.0	Open
P1655	N1658	N1659	20.01	600	114.0	0.0	Open
P1656	N1659	N1660	20.01	600	114.0	0.0	Open
P1657	N1660	N1661	20.01	600	114.0	0.0	Open
P1658	N1661	N1662	20.00	600	114.0	0.0	Open
P1659	N1662	N1663	20.01	600	114.0	0.0	Open
P1660	N1663	N1664	20.01	600	114.0	0.0	Open
P1661	N1664	N1665	20.00	600	114.0	0.0	Open
P1662	N1665	N1666	20.00	600	114.0	0.0	Open
P1663	N1666	N1667	20.00	600	114.0	0.0	Open
P1664	N1667	N1668	20.00	600	114.0	0.0	Open
P1665	N1668	N1669	20.00	600	114.0	0.0	Open
P1666	N1669	N1670	20.07	600	114.0	0.0	Open
P1667	N1670	N1671	20.00	600	114.0	0.0	Open
P1668	N1671	N1672	20.01	600	114.0	0.0	Open
P1669	N1672	N1673	20.01	600	114.0	0.0	Open
P1670	N1673	N1674	20.00	600	114.0	0.0	Open
P1671	N1674	N1675	20.00	600	114.0	0.0	Open
P1672	N1675	N1676	20.01	600	114.0	0.0	Open
P1673	N1676	N1677	20.00	600	114.0	0.0	Open
P1674	N1677	N1678	20.01	600	114.0	0.0	Open
P1675	N1678	N1679	20.00	600	114.0	0.0	Open
P1676	N1679	N1680	20.01	600	114.0	0.0	Open
P1677	N1680	N1681	20.00	600	114.0	0.0	Open
P1678	N1681	N1682	20.01	600	114.0	0.0	Open
P1679	N1682	N1683	20.01	600	114.0	0.0	Open
P1680	N1683	N1684	20.00	600	114.0	0.0	Open
P1681	N1684	N1685	20.01	600	114.0	0.0	Open
P1682	N1685	N1686	20.01	600	114.0	0.0	Open
P1683	N1686	N1687	20.00	600	114.0	0.0	Open
P1684	N1687	N1688	20.00	600	114.0	0.0	Open
P1685	N1688	N1689	20.00	600	114.0	0.0	Open
P1686	N1689	N1690	20.00	600	114.0	0.0	Open
P1687	N1690	N1691	20.01	600	114.0	0.0	Open
P1688	N1691	N1692	20.00	600	114.0	0.0	Open
P1689	N1692	N1693	20.00	600	114.0	0.0	Open
P1690	N1693	N1694	20.00	600	114.0	0.0	Open
P1691	N1694	N1695	20.00	600	114.0	0.0	Open
P1692	N1695	N1696	20.00	600	114.0	0.0	Open
P1693	N1696	N1697	20.00	600	114.0	0.0	Open
P1694	N1697	N1698	20.00	600	114.0	0.0	Open
P1695	N1698	N1699	20.00	600	114.0	0.0	Open
P1696	N1699	N1700	20.00	600	114.0	0.0	Open
P1697	N1700	N1701	20.00	600	114.0	0.0	Open
P1698	N1701	N1702	20.00	600	114.0	0.0	Open
P1699	N1702	N1703	20.00	600	114.0	0.0	Open
P1700	N1703	N1704	20.00	600	114.0	0.0	Open
P1701	N1704	N1705	20.00	600	114.0	0.0	Open
P1702	N1705	N1706	20.03	600	114.0	0.0	Open
P1703	N1706	N1707	20.00	600	114.0	0.0	Open
P1704	N1707	N1708	20.00	600	114.0	0.0	Open
P1705	N1708	N1709	20.00	600	114.0	0.0	Open
P1706	N1709	N1710	20.01	600	114.0	0.0	Open
P1707	N1710	N1711	20.00	600	114.0	0.0	Open
P1708	N1711	N1712	20.01	600	114.0	0.0	Open
P1709	N1712	N1713	20.00	600	114.0	0.0	Open
P1710	N1713	N1714	20.01	600	114.0	0.0	Open
P1711	N1714	N1715	20.01	600	114.0	0.0	Open
P1712	N1715	N1716	20.00	600	114.0	0.0	Open
P1713	N1716	N1717	20.02	600	114.0	0.0	Open
P1714	N1717	N1718	20.00	600	114.0	0.0	Open
P1715	N1718	N1719	20.01	600	114.0	0.0	Open
P1716	N1719	N1720	20.00	600	114.0	0.0	Open
P1717	N1720	N1721	20.01	600	114.0	0.0	Open
P1718	N1721	N1722	20.00	600	114.0	0.0	Open
P1719	N1722	N1723	20.01	600	114.0	0.0	Open
P1720	N1723	N1724	20.01	600	114.0	0.0	Open
P1721	N1724	N1725	20.00	600	114.0	0.0	Open
P1722	N1725	N1726	20.01	600	114.0	0.0	Open
P1723	N1726	N1727	20.00	600	114.0	0.0	Open
P1724	N1727	N1728	19.50	600	114.0	0.0	Open
P1725	N1728	N1729	20.01	600	114.0	0.0	Open
P1726	N1729	N1730	20.00	600	114.0	0.0	Open
P1727	N1730	N1731	20.00	600	114.0	0.0	Open
P1728	N1731	N1732	20.00	600	114.0	0.0	Open
P1729	N1732	N1733	20.00	600	114.0	0.0	Open
P1730	N1733	N1734	20.00	600	114.0	0.0	Open
P1731	N1734	N1735	20.00	600	114.0	0.0	Open
P1732	N1735	N1736	20.00	600	114.0	0.0	Open
P1733	N1736	N1737	20.00	600	114.0	0.0	Open
P1734	N1737	N1738	20.00	600	114.0	0.0	Open
P1735	N1738	N1739	19.92	600	114.0	0.0	Open
P1736	N1739	N1740	20.00	600	114.0	0.0	Open
P1737	N1740	N1741	20.00	600	114.0	0.0	Open
P1738	N1741	N1742	20.00	600	114.0	0.0	Open
P1739	N1742	N1743	20.01	600	114.0	0.0	Open
P1740	N1743	N1744	20.00	600	114.0	0.0	Open
P1741	N1744	N1745	20.00	600	114.0	0.0	Open
P1742	N1745	N1746	20.00	600	114.0	0.0	Open
P1743	N1746	N1747	20.00	600	114.0	0.0	Open
P1744	N1747	N1748	20.00	600	114.0	0.0	Open
P1745	N1748	N1749	20.00	600	114.0	0.0	Open
P1746	N1749	N1750	20.02	600	114.0	0.0	Open
P1747	N1750	N1751	20.00	600	114.0	0.0	Open
P1748	N1751	N1752	20.00	600	114.0	0.0	Open
P1749	N1752	N1753	20.00	600	114.0	0.0	Open
P1750	N1753	N1754	20.00	600	114.0	0.0	Open
P1751	N1754	N1755	20.00	600	114.0	0.0	Open
P1752	N1755	N1756	20.00	600	114.0	0.0	Open
P1753	N1756	N1757	20.00	600	114.0	0.0	Open
P1754	N1757	N1758	20.00	600	114.0	0.0	Open
P1755	N1758	N1759	20.00	600	114.0	0.0	Open
P1756	N1759	N1760	20.01	600	114.0	0.0	Open
P1757	N1760	N1761	20.00	600	114.0	0.0	Open
P1758	N1761	N1762	20.00	600	114.0	0.0	Open
P1759	N1762	N1763	20.00	600	114.0	0.0	Open
P1760	N1763	N1764	20.01	600	114.0	0.0	Open
P1761	N1764	N1765	20.00	600	114.0	0.0	Open
P1762	N1765	N1766	20.00	600	114.0	0.0	Open
P1763	N1766	N1767	20.00	600	114.0	0.0	Open
P1764	N1767	N1768	20.00	600	114.0	0.0	Open
P1765	N1768	N1769	20.00	600	114.0	0.0	Open
P1766	N1769	N1770	20.00	600	114.0	0.0	Open
P1767	N1770	N1771	20.00	600	114.0	0.0	Open
P1768	N1771	N1772	20.00	600	114.0	0.0	Open
P1769	N1772	N1773	20.01	600	114.0	0.0	Open
P1770	N1773	N1774	20.00	600	114.0	0.0	Open
P1771	N1774	N1775	20.00	600	114.0	0.0	Open
P1772	N1775	N1776	20.01	600	114.0	0.0	Open
P1773	N1776	N1777	19.91	600	114.0	0.0	Open
P1774	N1777	N1778	20.01	600	114.0	0.0	Open
P1775	N1778	N1779	20.00	600	114.0	0.0	Open
P1776	N1779	N1780	20.01	600	114.0	0.0	Open
P1777	N1780	N1781	20.00	600	114.0	0.0	Open
P1778	N1781	N1782	20.01	600	114.0	0.0	Open
P1779	N1782	N1783	20.00	600	114.0	0.0	Open
P1780	N1783	N1784	20.03	600	114.0	0.0	Open
P1781	N1784	N1785	20.00	600	114.0	0.0	Open
P1782	N1785	N1786	20.00	600	114.0	0.0	Open
P1783	N1786	N1787	20.07	600	114.0	0.0	Open
P1784	N1787	N1788	20.03	600	114.0	0.0	Open
P1785	N1788	N1789	20.00	600	114.0	0.0	Open
P1786	N1789	N1790	20.03	600	114.0	0.0	Open
P1787	N1790	N1791	20.02	600	114.0	0.0	Open
P1788	N1791	N1792	20.06	600	114.0	0.0	Open
P1789	N1792	N1793	20.01	600	114.0	0.0	Open
P1790	N1793	N1794	20.14	600	114.0	0.0	Open
P1791	N1794	N1795	20.00	600	114.0	0.0	Open
P1792	N1795	N1796	20.40	600	114.0	0.0	Open
P1793	N1796	N1797	20.00	600	114.0	0.0	Open
P1794	N1797	N1798	20.31	600	114.0	0.0	Open
P1795	N1798	N1799	20.00	600	114.0	0.0	Open
P1796	N1799	N1800	20.00	600	114.0	0.0	Open
P1797	N1800	N1801	20.68	600	114.0	0.0	Open
P1798	N1801	N1802	20.00	600	114.0	0.0	Open
P1799	N1802	N1803	20.01	600	114.0	0.0	Open
P1800	N1803	N1804	20.02	600	114.0	0.0	Open
P1801	N1804	N1805	20.00	600	114.0	0.0	Open
P1802	N1805	N1806	20.01	600	114.0	0.0	Open
P1803	N1806	N1807	20.03	600	114.0	0.0	Open
P1804	N1807	N1808	20.00	600	114.0	0.0	Open
P1805	N1808	N1809	20.00	600	114.0	0.0	Open
P1806	N1809	N1810	20.08	600	114.0	0.0	Open
P1807	N1810	N1811	20.02	600	114.0	0.0	Open
P1808	N1811	N1812	20.05	600	114.0	0.0	Open
P1809	N1812	N1813	20.13	600	114.0	0.0	Open
P1810	N1813	N1814	20.04	600	114.0	0.0	Open
P1811	N1814	N1815	20.23	600	114.0	0.0	Open
P1812	N1815	N1816	20.06	600	114.0	0.0	Open
P1813	N1816	N1817	20.04	600	114.0	0.0	Open
P1814	N1817	N1818	20.07	600	114.0	0.0	Open
P1815	N1818	N1819	20.15	600	114.0	0.0	Open
P1816	N1819	N1820	20.00	600	114.0	0.0	Open
P1817	N1820	N1821	20.23	600	114.0	0.0	Open
P1818	N1821	N1822	20.01	600	114.0	0.0	Open
P1819	N1822	N1823	20.06	600	114.0	0.0	Open
P1820	N1823	N1824	20.19	600	114.0	0.0	Open
P1821	N1824	N1825	20.03	600	114.0	0.0	Open
P1822	N1825	N1826	20.01	600	114.0	0.0	Open
P1823	N1826	N1827	20.00	600	114.0	0.0	Open
P1824	N1827	N1828	20.01	600	114.0	0.0	Open
P1825	N1828	N1829	20.01	600	114.0	0.0	Open
P1826	N1829	N1830	20.02	600	114.0	0.0	Open
P1827	N1830	N1831	20.11	600	114.0	0.0	Open
P1828	N1831	N1832	20.14	600	114.0	0.0	Open
P1829	N1832	N1833	19.56	600	114.0	0.0	Open
P1830	N1833	N1834	20.07	600	114.0	0.0	Open
P1831	N1834	N1835	20.11	600	114.0	0.0	Open
P1832	N1835	N1836	20.00	600	114.0	0.0	Open
P1833	N1836	N1837	20.47	600	114.0	0.0	Open
P1834	N1837	N1838	20.23	600	114.0	0.0	Open
P1835	N1838	N1839	20.78	600	114.0	0.0	Open
P1836	N1839	N1840	20.21	600	114.0	0.0	Open
P1837	N1840	N1841	20.10	600	114.0	0.0	Open
P1838	N1841	N1842	20.25	600	114.0	0.0	Open
P1839	N1842	N1843	20.01	600	114.0	0.0	Open
P1840	N1843	N1844	20.42	600	114.0	0.0	Open
P1841	N1844	N1845	20.15	600	114.0	0.0	Open
P1842	N1845	N1846	20.19	600	114.0	0.0	Open
P1843	N1846	N1847	20.00	600	114.0	0.0	Open
P1844	N1847	N1848	20.51	600	114.0	0.0	Open
P1845	N1848	N1849	20.13	600	114.0	0.0	Open
P1846	N1849	N1850	20.17	600	114.0	0.0	Open
P1847	N1850	N1851	20.09	600	114.0	0.0	Open
P1848	N1851	N1852	20.09	600	114.0	0.0	Open
P1849	N1852	N1853	20.14	600	114.0	0.0	Open
P1850	N1853	N1854	20.01	600	114.0	0.0	Open
P1851	N1854	N1855	19.60	600	114.0	0.0	Open
P1852	N1855	N1856	20.01	600	114.0	0.0	Open
P1853	N1856	N1857	20.02	600	114.0	0.0	Open
P1854	N1857	N1858	20.00	600	114.0	0.0	Open
P1855	N1858	N1859	20.00	600	114.0	0.0	Open
P1856	N1859	N1860	20.00	600	114.0	0.0	Open
P1857	N1860	N1861	20.01	600	114.0	0.0	Open
P1858	N1861	N1862	19.83	600	114.0	0.0	Open
P1859	N1862	N1863	20.00	600	114.0	0.0	Open
P1860	N1863	N1864	20.00	600	114.0	0.0	Open
P1861	N1864	N1865	20.00	600	114.0	0.0	Open
P1862	N1865	N1866	20.00	600	114.0	0.0	Open
P1863	N1866	N1867	20.01	600	114.0	0.0	Open
P1864	N1867	N1868	20.00	600	114.0	0.0	Open
P1865	N1868	N1869	20.00	600	114.0	0.0	Open
P1866	N1869	N1870	20.00	600	114.0	0.0	Open
P1867	N1870	N1871	20.00	600	114.0	0.0	Open
P1868	N1871	N1872	20.00	600	114.0	0.0	Open
P1869	N1872	N1873	20.00	600	114.0	0.0	Open
P1870	N1873	N1874	20.00	600	114.0	0.0	Open
P1871	N1874	N1875	20.00	600	114.0	0.0	Open
P1872	N1875	N1876	19.93	600	114.0	0.0	Open
P1873	N1876	N1877	20.00	600	114.0	0.0	Open
P1874	N1877	N1878	20.00	600	114.0	0.0	Open
P1875	N1878	N1879	20.00	600	114.0	0.0	Open
P1876	N1879	N1880	20.00	600	114.0	0.0	Open
P1877	N1880	N1881	20.03	600	114.0	0.0	Open
P1878	N1881	N1882	20.00	600	114.0	0.0	Open
P1879	N1882	N1883	20.00	600	114.0	0.0	Open
P1880	N1883	N1884	19.88	600	114.0	0.0	Open
P1881	N1884	N1885	20.00	600	114.0	0.0	Open
P1882	N1885	N1886	20.01	600	114.0	0.0	Open
P1883	N1886	N1887	20.02	600	114.0	0.0	Open
P1884	N1887	N1888	20.17	600	114.0	0.0	Open
P1885	N1888	N1889	20.00	600	114.0	0.0	Open
P1886	N1889	N1890	20.00	600	114.0	0.0	Open
P1887	N1890	N1891	20.00	600	114.0	0.0	Open
P1888	N1891	N1892	20.00	600	114.0	0.0	Open
P1889	N1892	N1893	20.04	600	114.0	0.0	Open
P1890	N1893	N1894	19.93	600	114.0	0.0	Open
P1891	N1894	N1895	20.00	600	114.0	0.0	Open
P1892	N1895	N1896	20.00	600	114.0	0.0	Open
P1893	N1896	N1897	20.03	600	114.0	0.0	Open
P1894	N1897	N1898	20.06	600	114.0	0.0	Open
P1895	N1898	N1899	20.02	600	114.0	0.0	Open
P1896	N1899	N1900	20.02	600	114.0	0.0	Open
P1897	N1900	N1901	20.00	600	114.0	0.0	Open
P1898	N1901	N1902	20.01	600	114.0	0.0	Open
P1899	N1902	N1903	20.15	600	114.0	0.0	Open
P1900	N1903	N1904	20.00	600	114.0	0.0	Open
P1901	N1904	N1905	20.22	600	114.0	0.0	Open
P1902	N1905	N1906	20.00	600	114.0	0.0	Open
P1903	N1906	N1907	20.00	600	114.0	0.0	Open
P1904	N1907	N1908	20.24	600	114.0	0.0	Open
P1905	N1908	N1909	20.02	600	114.0	0.0	Open
P1906	N1909	N1910	20.00	600	114.0	0.0	Open
P1907	N1910	N1911	20.04	600	114.0	0.0	Open
P1908	N1911	N1912	20.00	600	114.0	0.0	Open
P1909	N1912	N1913	20.04	600	114.0	0.0	Open
P1910	N1913	N1914	20.00	600	114.0	0.0	Open
P1911	N1914	N1915	19.95	600	114.0	0.0	Open
P1912	N1915	N1916	20.02	600	114.0	0.0	Open
P1913	N1916	N1917	20.00	600	114.0	0.0	Open
P1914	N1917	N1918	20.04	600	114.0	0.0	Open
P1915	N1918	N1919	20.00	600	114.0	0.0	Open
P1916	N1919	N1920	20.02	600	114.0	0.0	Open
P1917	N1920	N1921	20.01	600	114.0	0.0	Open
P1918	N1921	N1922	20.01	600	114.0	0.0	Open
P1919	N1922	N1923	20.01	600	114.0	0.0	Open
P1920	N1923	N1924	20.01	600	114.0	0.0	Open
P1921	N1924	N1925	20.01	600	114.0	0.0	Open
P1922	N1925	N1926	20.01	600	114.0	0.0	Open
P1923	N1926	N1927	20.00	600	114.0	0.0	Open
P1924	N1927	N1928	20.02	600	114.0	0.0	Open
P1925	N1928	N1929	20.01	600	114.0	0.0	Open
P1926	N1929	N1930	20.00	600	114.0	0.0	Open
P1927	N1930	N1931	20.00	600	114.0	0.0	Open
P1928	N1931	N1932	20.00	600	114.0	0.0	Open
P1929	N1932	N1933	20.00	600	114.0	0.0	Open
P1930	N1933	N1934	20.07	600	114.0	0.0	Open
P1931	N1934	N1935	20.00	600	114.0	0.0	Open
P1932	N1935	N1936	20.01	600	114.0	0.0	Open
P1933	N1936	N1937	20.07	600	114.0	0.0	Open
P1934	N1937	N1938	20.00	600	114.0	0.0	Open
P1935	N1938	N1939	20.00	600	114.0	0.0	Open
P1936	N1939	N1940	20.00	600	114.0	0.0	Open
P1937	N1940	N1941	20.00	600	114.0	0.0	Open
P1938	N1941	N1942	20.00	600	114.0	0.0	Open
P1939	N1942	N1943	20.02	600	114.0	0.0	Open
P1940	N1943	N1944	20.03	600	114.0	0.0	Open
P1941	N1944	N1945	20.02	600	114.0	0.0	Open
P1942	N1945	N1946	20.00	600	114.0	0.0	Open
P1943	N1946	N1947	19.96	600	114.0	0.0	Open
P1944	N1947	N1948	20.00	600	114.0	0.0	Open
P1945	N1948	N1949	20.01	600	114.0	0.0	Open
P1946	N1949	N1950	20.00	600	114.0	0.0	Open
P1947	N1950	N1951	20.00	600	114.0	0.0	Open
P1948	N1951	N1952	20.00	600	114.0	0.0	Open
P1949	N1952	N1953	20.00	600	114.0	0.0	Open
P1950	N1953	N1954	20.00	600	114.0	0.0	Open
P1951	N1954	N1955	20.00	600	114.0	0.0	Open
P1952	N1955	N1956	20.00	600	114.0	0.0	Open
P1953	N1956	N1957	20.00	600	114.0	0.0	Open
P1954	N1957	N1958	20.02	600	114.0	0.0	Open
P1955	N1958	N1959	20.00	600	114.0	0.0	Open
P1956	N1959	N1960	20.01	600	114.0	0.0	Open
P1957	N1960	N1961	20.00	600	114.0	0.0	Open
P1958	N1961	N1962	20.00	600	114.0	0.0	Open
P1959	N1962	N1963	20.00	600	114.0	0.0	Open
P1960	N1963	N1964	20.01	600	114.0	0.0	Open
P1961	N1964	N1965	20.00	600	114.0	0.0	Open
P1962	N1965	N1966	20.00	600	114.0	0.0	Open
P1963	N1966	N1967	20.00	600	114.0	0.0	Open
P1964	N1967	N1968	20.00	600	114.0	0.0	Open
P1965	N1968	N1969	20.01	600	114.0	0.0	Open
P1966	N1969	N1970	20.00	600	114.0	0.0	Open
P1967	N1970	N1971	20.01	600	114.0	0.0	Open
P1968	N1971	N1972	20.00	600	114.0	0.0	Open
P1969	N1972	N1973	20.01	600	114.0	0.0	Open
P1970	N1973	N1974	20.00	600	114.0	0.0	Open
P1971	N1974	N1975	20.00	600	114.0	0.0	Open
P1972	N1975	N1976	20.00	600	114.0	0.0	Open
P1973	N1976	N1977	20.01	600	114.0	0.0	Open
P1974	N1977	N1978	20.00	600	114.0	0.0	Open
P1975	N1978	N1979	20.00	600	114.0	0.0	Open
P1976	N1979	N1980	20.00	600	114.0	0.0	Open
P1977	N1980	N1981	20.00	600	114.0	0.0	Open
P1978	N1981	N1982	20.00	600	114.0	0.0	Open
P1979	N1982	N1983	20.00	600	114.0	0.0	Open
P1980	N1983	N1984	20.00	600	114.0	0.0	Open
P1981	N1984	N1985	20.00	600	114.0	0.0	Open
P1982	N1985	N1986	20.00	600	114.0	0.0	Open
P1983	N1986	N1987	20.00	600	114.0	0.0	Open
P1984	N1987	N1988	20.00	600	114.0	0.0	Open
P1985	N1988	N1989	20.01	600	114.0	0.0	Open
P1986	N1989	N1990	20.00	600	114.0	0.0	Open
P1987	N1990	N1991	20.00	600	114.0	0.0	Open
P1988	N1991	N1992	19.98	600	114.0	0.0	Open
P1989	N1992	N1993	20.00	600	114.0	0.0	Open
P1990	N1993	N1994	20.00	600	114.0	0.0	Open
P1991	N1994	N1995	20.00	600	114.0	0.0	Open
P1992	N1995	N1996	20.01	600	114.0	0.0	Open
P1993	N1996	N1997	20.00	600	114.0	0.0	Open
P1994	N1997	N1998	20.00	600	114.0	0.0	Open
P1995	N1998	N1999	20.00	600	114.0	0.0	Open
P1996	N1999	N2000	20.00	600	114.0	0.0	Open
P1997	N2000	N2001	20.01	600	114.0	0.0	Open
P1998	N2001	N2002	20.00	600	114.0	0.0	Open
P1999	N2002	N2003	20.00	600	114.0	0.0	Open
P2000	N2003	N2004	20.00	600	114.0	0.0	Open
P2001	N2004	N2005	20.00	600	114.0	0.0	Open
P2002	N2005	N2006	20.10	600	114.0	0.0	Open
P2003	N2006	N2007	20.00	600	114.0	0.0	Open
P2004	N2007	N2008	20.05	600	114.0	0.0	Open
P2005	N2008	N2009	20.01	600	114.0	0.0	Open
P2006	N2009	N2010	20.03	600	114.0	0.0	Open
P2007	N2010	N2011	20.00	600	114.0	0.0	Open
P2008	N2011	N2012	20.01	600	114.0	0.0	Open
P2009	N2012	N2013	20.01	600	114.0	0.0	Open
P2010	N2013	N2014	20.00	600	114.0	0.0	Open
P2011	N2014	N2015	20.01	600	114.0	0.0	Open
P2012	N2015	N2016	20.00	600	114.0	0.0	Open
P2013	N2016	N2017	20.09	600	114.0	0.0	Open
P2014	N2017	N2018	20.00	600	114.0	0.0	Open
P2015	N2018	N2019	20.03	600	114.0	0.0	Open
P2016	N2019	N2020	20.02	600	114.0	0.0	Open
P2017	N2020	N2021	20.00	600	114.0	0.0	Open
P2018	N2021	N2022	20.02	600	114.0	0.0	Open
P2019	N2022	N2023	20.11	600	114.0	0.0	Open
P2020	N2023	N2024	20.00	600	114.0	0.0	Open
P2021	N2024	N2025	20.02	600	114.0	0.0	Open
P2022	N2025	N2026	20.13	600	114.0	0.0	Open
P2023	N2026	N2027	20.02	600	114.0	0.0	Open
P2024	N2027	N2028	20.01	600	114.0	0.0	Open
P2025	N2028	N2029	20.00	600	114.0	0.0	Open
P2026	N2029	N2030	20.01	600	114.0	0.0	Open
P2027	N2030	N2031	20.00	600	114.0	0.0	Open
P2028	N2031	N2032	20.00	600	114.0	0.0	Open
P2029	N2032	N2033	20.00	600	114.0	0.0	Open
P2030	N2033	N2034	20.00	600	114.0	0.0	Open
P2031	N2034	N2035	20.01	600	114.0	0.0	Open
P2032	N2035	N2036	20.01	600	114.0	0.0	Open
P2033	N2036	N2037	20.06	600	114.0	0.0	Open
P2034	N2037	N2038	20.00	600	114.0	0.0	Open
P2035	N2038	N2039	20.03	600	114.0	0.0	Open
P2036	N2039	N2040	20.00	600	114.0	0.0	Open
P2037	N2040	N2041	20.00	600	114.0	0.0	Open
P2038	N2041	N2042	20.01	600	114.0	0.0	Open
P2039	N2042	N2043	20.00	600	114.0	0.0	Open
P2040	N2043	N2044	20.00	600	114.0	0.0	Open
P2041	N2044	N2045	20.09	600	114.0	0.0	Open
P2042	N2045	N2046	20.00	600	114.0	0.0	Open
P2043	N2046	N2047	20.00	600	114.0	0.0	Open
P2044	N2047	N2048	20.00	600	114.0	0.0	Open
P2045	N2048	N2049	20.01	600	114.0	0.0	Open
P2046	N2049	N2050	20.00	600	114.0	0.0	Open
P2047	N2050	N2051	20.00	600	114.0	0.0	Open
P2048	N2051	N2052	20.00	600	114.0	0.0	Open
P2049	N2052	N2053	20.00	600	114.0	0.0	Open
P2050	N2053	N2054	20.00	600	114.0	0.0	Open
P2051	N2054	N2055	20.00	600	114.0	0.0	Open
P2052	N2055	N2056	20.00	600	114.0	0.0	Open
P2053	N2056	N2057	20.00	600	114.0	0.0	Open
P2054	N2057	N2058	20.00	600	114.0	0.0	Open
P2055	N2058	N2059	20.00	600	114.0	0.0	Open
P2056	N2059	N2060	20.00	600	114.0	0.0	Open
P2057	N2060	N2061	20.00	600	114.0	0.0	Open
P2058	N2061	N2062	20.00	600	114.0	0.0	Open
P2059	N2062	N2063	20.00	600	114.0	0.0	Open
P2060	N2063	N2064	20.00	600	114.0	0.0	Open
P2061	N2064	N2065	20.01	600	114.0	0.0	Open
P2062	N2065	N2066	20.01	600	114.0	0.0	Open
P2063	N2066	N2067	20.02	600	114.0	0.0	Open
P2064	N2067	N2068	20.00	600	114.0	0.0	Open
P2065	N2068	N2069	20.00	600	114.0	0.0	Open
P2066	N2069	N2070	20.01	600	114.0	0.0	Open
P2067	N2070	N2071	20.00	600	114.0	0.0	Open
P2068	N2071	N2072	20.04	600	114.0	0.0	Open
P2069	N2072	N2073	20.20	600	114.0	0.0	Open
P2070	N2073	N2074	20.01	600	114.0	0.0	Open
P2071	N2074	N2075	20.01	600	114.0	0.0	Open
P2072	N2075	N2076	20.00	600	114.0	0.0	Open
P2073	N2076	N2077	20.01	600	114.0	0.0	Open
P2074	N2077	N2078	20.00	600	114.0	0.0	Open
P2075	N2078	N2079	20.41	600	114.0	0.0	Open
P2076	N2079	N2080	20.01	600	114.0	0.0	Open
P2077	N2080	N2081	20.01	600	114.0	0.0	Open
P2078	N2081	N2082	20.02	600	114.0	0.0	Open
P2079	N2082	N2083	20.00	600	114.0	0.0	Open
P2080	N2083	N2084	20.00	600	114.0	0.0	Open
P2081	N2084	N2085	20.00	600	114.0	0.0	Open
P2082	N2085	N2086	20.00	600	114.0	0.0	Open
P2083	N2086	N2087	20.00	600	114.0	0.0	Open
P2084	N2087	N2088	20.01	600	114.0	0.0	Open
P2085	N2088	N2089	20.00	600	114.0	0.0	Open
P2086	N2089	N2090	20.00	600	114.0	0.0	Open
P2087	N2090	N2091	20.00	600	114.0	0.0	Open
P2088	N2091	N2092	20.00	600	114.0	0.0	Open
P2089	N2092	N2093	20.00	600	114.0	0.0	Open
P2090	N2093	N2094	20.00	600	114.0	0.0	Open
P2091	N2094	N2095	20.00	600	114.0	0.0	Open
P2092	N2095	N2096	20.00	600	114.0	0.0	Open
P2093	N2096	N2097	20.00	600	114.0	0.0	Open
P2094	N2097	N2098	20.00	600	114.0	0.0	Open
P2095	N2098	N2099	20.00	600	114.0	0.0	Open
P2096	N2099	N2100	20.00	600	114.0	0.0	Open
P2097	N2100	N2101	20.00	600	114.0	0.0	Open
P2098	N2101	N2102	20.00	600	114.0	0.0	Open
P2099	N2102	N2103	20.01	600	114.0	0.0	Open
P2100	N2103	N2104	20.00	600	114.0	0.0	Open
P2101	N2104	N2105	20.00	600	114.0	0.0	Open
P2102	N2105	N2106	20.00	600	114.0	0.0	Open
P2103	N2106	N2107	20.03	600	114.0	0.0	Open
P2104	N2107	N2108	20.01	600	114.0	0.0	Open
P2105	N2108	N2109	20.05	600	114.0	0.0	Open
P2106	N2109	N2110	20.00	600	114.0	0.0	Open
P2107	N2110	N2111	20.00	600	114.0	0.0	Open
P2108	N2111	N2112	20.01	600	114.0	0.0	Open
P2109	N2112	N2113	20.02	600	114.0	0.0	Open
P2110	N2113	N2114	20.00	600	114.0	0.0	Open
P2111	N2114	N2115	20.00	600	114.0	0.0	Open
P2112	N2115	N2116	20.00	600	114.0	0.0	Open
P2113	N2116	N2117	20.00	600	114.0	0.0	Open
P2114	N2117	N2118	20.03	600	114.0	0.0	Open
P2115	N2118	N2119	20.03	600	114.0	0.0	Open
P2116	N2119	N2120	20.08	600	114.0	0.0	Open
P2117	N2120	N2121	20.00	600	114.0	0.0	Open
P2118	N2121	N2122	20.01	600	114.0	0.0	Open
P2119	N2122	N2123	20.00	600	114.0	0.0	Open
P2120	N2123	N2124	20.00	600	114.0	0.0	Open
P2121	N2124	N2125	20.00	600	114.0	0.0	Open
P2122	N2125	N2126	20.01	600	114.0	0.0	Open
P2123	N2126	N2127	20.00	600	114.0	0.0	Open
P2124	N2127	N2128	20.00	600	114.0	0.0	Open
P2125	N2128	N2129	20.00	600	114.0	0.0	Open
P2126	N2129	N2130	20.01	600	114.0	0.0	Open
P2127	N2130	N2131	20.01	600	114.0	0.0	Open
P2128	N2131	N2132	20.00	600	114.0	0.0	Open
P2129	N2132	N2133	20.05	600	114.0	0.0	Open
P2130	N2133	N2134	20.00	600	114.0	0.0	Open
P2131	N2134	N2135	20.00	600	114.0	0.0	Open
P2132	N2135	N2136	20.00	600	114.0	0.0	Open
P2133	N2136	N2137	20.00	600	114.0	0.0	Open
P2134	N2137	N2138	20.00	600	114.0	0.0	Open
P2135	N2138	N2139	20.04	600	114.0	0.0	Open
P2136	N2139	N2140	20.05	600	114.0	0.0	Open
P2137	N2140	N2141	20.01	600	114.0	0.0	Open
P2138	N2141	N2142	20.02	600	114.0	0.0	Open
P2139	N2142	N2143	20.01	600	114.0	0.0	Open
P2140	N2143	N2144	20.01	600	114.0	0.0	Open
P2141	N2144	N2145	20.35	600	114.0	0.0	Open
P2142	N2145	N2146	20.01	600	114.0	0.0	Open
P2143	N2146	N2147	20.00	600	114.0	0.0	Open
P2144	N2147	N2148	20.03	600	114.0	0.0	Open
P2145	N2148	N2149	20.00	600	114.0	0.0	Open
P2146	N2149	N2150	20.28	600	114.0	0.0	Open
P2147	N2150	N2151	20.00	600	114.0	0.0	Open
P2148	N2151	N2152	20.00	600	114.0	0.0	Open
P2149	N2152	N2153	20.00	600	114.0	0.0	Open
P2150	N2153	N2154	19.87	600	114.0	0.0	Open
P2151	N2154	N2155	20.01	600	114.0	0.0	Open
P2152	N2155	J-001N	14.72	600	114.0	0.0	Open
P2153	J-001N	N2157	20.02	600	114.0	0.0	Open
P2154	N2157	J-002N	20.00	600	114.0	0.0	Open
P2155	J-002N	N2159	20.00	600	114.0	0.0	Open
P2156	N2159	N2160	20.27	600	114.0	0.0	Open
P2157	N2160	N2161	20.00	600	114.0	0.0	Open
P2158	N2161	N2162	19.98	600	114.0	0.0	Open
P2159	N2162	J-003N	20.00	600	114.0	0.0	Open
UHURU_INLET_INLET	UHURU_PARK_GBR_VD	UHURU_PARK_GBR	5.00	600	114.0	0.0	Open
UHURU_INLET	J-003N	UHURU_PARK_GBR_IN	50.00	600	114.0	0.0	Open
ESR_BRANCH_INLET	TUNDUMA_ESR_VD	TUNDUMA_ESR	5.00	100	114.0	0.0	Open
ESR_BRANCH	J-001N	TUNDUMA_ESR_IN	38.00	100	114.0	0.0	Open
GSR01_BRANCH_INLET	UHURU_GSR01_VD	UHURU_GSR01	5.00	150	114.0	0.0	Open
GSR01_BRANCH	J-002N	UHURU_GSR01_IN	40.00	150	114.0	0.0	Open
IPITO_BRANCH_INLET	IPITO_GSR02_VD	IPITO_GSR02	5.00	150	114.0	0.0	Open
P2160	J-003N	N2165	104.99	150	114.0	0.0	Open
P2161	N2165	N2166	20.00	150	114.0	0.0	Open
P2162	N2166	N2167	20.00	150	114.0	0.0	Open
P2163	N2167	N2168	20.00	150	114.0	0.0	Open
P2164	N2168	N2169	131.10	150	114.0	0.0	Open
P2165	N2169	N2170	81.74	150	114.0	0.0	Open
P2166	N2170	N2171	47.14	150	114.0	0.0	Open
P2167	N2171	N2172	50.05	150	114.0	0.0	Open
P2168	N2172	N2173	50.00	150	114.0	0.0	Open
P2169	N2173	N2174	44.13	150	114.0	0.0	Open
P2170	N2174	N2175	50.09	150	114.0	0.0	Open
P2171	N2175	N2176	50.05	150	114.0	0.0	Open
P2172	N2176	N2177	50.01	150	114.0	0.0	Open
P2173	N2177	N2178	50.02	150	114.0	0.0	Open
P2174	N2178	N2179	50.01	150	114.0	0.0	Open
P2175	N2179	N2180	50.01	150	114.0	0.0	Open
P2176	N2180	N2181	50.00	150	114.0	0.0	Open
P2177	N2181	N2182	50.00	150	114.0	0.0	Open
P2178	N2182	N2183	50.00	150	114.0	0.0	Open
P2179	N2183	N2184	50.00	150	114.0	0.0	Open
P2180	N2184	N2185	50.00	150	114.0	0.0	Open
P2181	N2185	N2186	50.00	150	114.0	0.0	Open
P2182	N2186	N2187	50.00	150	114.0	0.0	Open
P2183	N2187	N2188	50.00	150	114.0	0.0	Open
P2184	N2188	N2189	50.00	150	114.0	0.0	Open
P2185	N2189	N2190	50.00	150	114.0	0.0	Open
P2186	N2190	N2191	50.00	150	114.0	0.0	Open
P2187	N2191	N2192	50.00	150	114.0	0.0	Open
P2188	N2192	N2193	50.01	150	114.0	0.0	Open
P2189	N2193	N2194	50.00	150	114.0	0.0	Open
P2190	N2194	N2195	42.86	150	114.0	0.0	Open
P2191	N2195	N2196	50.00	150	114.0	0.0	Open
P2192	N2196	N2197	50.01	150	114.0	0.0	Open
P2193	N2197	N2198	41.48	150	114.0	0.0	Open
P2194	N2198	N2199	50.00	150	114.0	0.0	Open
P2195	N2199	N2200	49.94	150	114.0	0.0	Open
P2196	N2200	N2201	50.01	150	114.0	0.0	Open
P2197	N2201	N2202	50.07	150	114.0	0.0	Open
P2198	N2202	N2203	50.15	150	114.0	0.0	Open
P2199	N2203	N2204	50.26	150	114.0	0.0	Open
P2200	N2204	N2205	47.88	150	114.0	0.0	Open
P2201	N2205	N2206	44.64	150	114.0	0.0	Open
P2202	N2206	N2207	50.09	150	114.0	0.0	Open
P2203	N2207	N2208	48.81	150	114.0	0.0	Open
P2204	N2208	N2209	39.01	150	114.0	0.0	Open
P2205	N2209	N2210	50.05	150	114.0	0.0	Open
P2206	N2210	N2211	49.23	150	114.0	0.0	Open
P2207	N2211	N2212	50.21	150	114.0	0.0	Open
P2208	N2212	N2213	50.09	150	114.0	0.0	Open
P2209	N2213	N2214	50.10	150	114.0	0.0	Open
P2210	N2214	N2215	50.32	150	114.0	0.0	Open
P2211	N2215	N2216	50.14	150	114.0	0.0	Open
P2212	N2216	N2217	50.25	150	114.0	0.0	Open
P2213	N2217	N2218	49.26	150	114.0	0.0	Open
P2214	N2218	N2219	42.05	150	114.0	0.0	Open
P2215	N2219	N2220	44.29	150	114.0	0.0	Open
P2216	N2220	N2221	50.02	150	114.0	0.0	Open
P2217	N2221	N2222	48.13	150	114.0	0.0	Open
P2218	N2222	N2223	50.00	150	114.0	0.0	Open
P2219	N2223	N2224	50.00	150	114.0	0.0	Open
P2220	N2224	N2225	50.06	150	114.0	0.0	Open
P2221	N2225	N2226	49.48	150	114.0	0.0	Open
P2222	N2226	N2227	50.19	150	114.0	0.0	Open
P2223	N2227	N2228	50.00	150	114.0	0.0	Open
P2224	N2228	N2229	49.23	150	114.0	0.0	Open
P2225	N2229	N2230	50.13	150	114.0	0.0	Open
P2226	N2230	N2231	47.92	150	114.0	0.0	Open
P2227	N2231	N2232	50.14	150	114.0	0.0	Open
P2228	N2232	N2233	50.40	150	114.0	0.0	Open
P2229	N2233	N2234	50.00	150	114.0	0.0	Open
P2230	N2234	N2235	50.00	150	114.0	0.0	Open
P2231	N2235	N2236	47.38	150	114.0	0.0	Open
P2232	N2236	N2237	42.63	150	114.0	0.0	Open
P2233	N2237	N2238	47.11	150	114.0	0.0	Open
P2234	N2238	N2239	39.18	150	114.0	0.0	Open
P2235	N2239	N2240	50.04	150	114.0	0.0	Open
P2236	N2240	N2241	50.24	150	114.0	0.0	Open
P2237	N2241	N2242	36.73	150	114.0	0.0	Open
P2238	N2242	N2243	49.90	150	114.0	0.0	Open
P2239	N2243	N2244	49.23	150	114.0	0.0	Open
P2240	N2244	N2245	45.90	150	114.0	0.0	Open
P2241	N2245	N2246	51.20	150	114.0	0.0	Open
P2242	N2246	N2247	50.99	150	114.0	0.0	Open
P2243	N2247	N2248	42.33	150	114.0	0.0	Open
P2244	N2248	N2249	48.43	150	114.0	0.0	Open
P2245	N2249	IPITO_GSR02_IN	3.28	150	114.0	0.0	Open
P2246	UHURU_PARK_GBR	N2252	97.19	150	114.0	0.0	Open
P2247	N2252	N2253	42.14	150	114.0	0.0	Open
P2248	N2253	N2254	20.00	150	114.0	0.0	Open
P2249	N2254	N2255	20.00	150	114.0	0.0	Open
P2250	N2255	N2256	73.42	150	114.0	0.0	Open
P2251	N2256	N2257	114.40	150	114.0	0.0	Open
P2252	N2257	N2258	49.46	150	114.0	0.0	Open
P2253	N2258	N2259	50.09	150	114.0	0.0	Open
P2254	N2259	N2260	50.06	150	114.0	0.0	Open
P2255	N2260	N2261	49.59	150	114.0	0.0	Open
P2256	N2261	N2262	50.09	150	114.0	0.0	Open
P2257	N2262	N2263	49.80	150	114.0	0.0	Open
P2258	N2263	N2264	50.12	150	114.0	0.0	Open
P2259	N2264	N2265	49.09	150	114.0	0.0	Open
P2260	N2265	N2266	49.84	150	114.0	0.0	Open
P2261	N2266	N2267	49.70	150	114.0	0.0	Open
P2262	N2267	N2268	50.09	150	114.0	0.0	Open
P2263	N2268	N2269	49.24	150	114.0	0.0	Open
P2264	N2269	N2270	50.11	150	114.0	0.0	Open
P2265	N2270	N2271	50.20	150	114.0	0.0	Open
P2266	N2271	N2272	50.10	150	114.0	0.0	Open
P2267	N2272	N2273	50.39	150	114.0	0.0	Open
P2268	N2273	N2274	50.27	150	114.0	0.0	Open
P2269	N2274	N2275	50.18	150	114.0	0.0	Open
P2270	N2275	N2276	49.72	150	114.0	0.0	Open
P2271	N2276	N2277	50.02	150	114.0	0.0	Open
P2272	N2277	N2278	49.76	150	114.0	0.0	Open
P2273	N2278	N2279	48.95	150	114.0	0.0	Open
P2274	N2279	N2280	50.45	150	114.0	0.0	Open
P2275	N2280	J-004N	48.96	150	114.0	0.0	Open
MAKAMBINI_BRANCH_INLET	MAKAMBINI_GSR03_VD	MAKAMBINI_GSR03	5.00	100	114.0	0.0	Open
MAKAMBINI_BRANCH	J-004N	MAKAMBINI_GSR03_IN	494.00	100	114.0	0.0	Open
CHAPWA_BRANCH_INLET	CHAPWA_GSR04_VD	CHAPWA_GSR04	5.00	100	114.0	0.0	Open
P2276	J-004N	N2282	50.01	100	114.0	0.0	Open
P2277	N2282	N2283	49.83	100	114.0	0.0	Open
P2278	N2283	N2284	50.01	100	114.0	0.0	Open
P2279	N2284	N2285	50.03	100	114.0	0.0	Open
P2280	N2285	N2286	50.35	100	114.0	0.0	Open
P2281	N2286	N2287	50.31	100	114.0	0.0	Open
P2282	N2287	N2288	50.00	100	114.0	0.0	Open
P2283	N2288	N2289	50.26	100	114.0	0.0	Open
P2284	N2289	N2290	50.27	100	114.0	0.0	Open
P2285	N2290	N2291	50.12	100	114.0	0.0	Open
P2286	N2291	N2292	49.66	100	114.0	0.0	Open
P2287	N2292	N2293	48.33	100	114.0	0.0	Open
P2288	N2293	N2294	47.25	100	114.0	0.0	Open
P2289	N2294	N2295	50.39	100	114.0	0.0	Open
P2290	N2295	N2296	49.65	100	114.0	0.0	Open
P2291	N2296	N2297	49.48	100	114.0	0.0	Open
P2292	N2297	N2298	50.02	100	114.0	0.0	Open
P2293	N2298	N2299	49.97	100	114.0	0.0	Open
P2294	N2299	N2300	50.07	100	114.0	0.0	Open
P2295	N2300	N2301	48.92	100	114.0	0.0	Open
P2296	N2301	N2302	49.65	100	114.0	0.0	Open
P2297	N2302	N2303	49.22	100	114.0	0.0	Open
P2298	N2303	N2304	50.20	100	114.0	0.0	Open
P2299	N2304	N2305	49.68	100	114.0	0.0	Open
P2300	N2305	N2306	49.94	100	114.0	0.0	Open
P2301	N2306	N2307	50.02	100	114.0	0.0	Open
P2302	N2307	N2308	50.02	100	114.0	0.0	Open
P2303	N2308	N2309	50.00	100	114.0	0.0	Open
P2304	N2309	N2310	50.04	100	114.0	0.0	Open
P2305	N2310	N2311	50.01	100	114.0	0.0	Open
P2306	N2311	N2312	48.97	100	114.0	0.0	Open
P2307	N2312	N2313	50.37	100	114.0	0.0	Open
P2308	N2313	N2314	50.02	100	114.0	0.0	Open
P2309	N2314	N2315	50.07	100	114.0	0.0	Open
P2310	N2315	N2316	50.01	100	114.0	0.0	Open
P2311	N2316	N2317	49.03	100	114.0	0.0	Open
P2312	N2317	N2318	49.28	100	114.0	0.0	Open
P2313	N2318	N2319	49.75	100	114.0	0.0	Open
P2314	N2319	N2320	50.12	100	114.0	0.0	Open
P2315	N2320	N2321	50.07	100	114.0	0.0	Open
P2316	N2321	N2322	50.21	100	114.0	0.0	Open
P2317	N2322	N2323	49.17	100	114.0	0.0	Open
P2318	N2323	N2324	49.00	100	114.0	0.0	Open
P2319	N2324	N2325	50.01	100	114.0	0.0	Open
P2320	N2325	N2326	50.24	100	114.0	0.0	Open
P2321	N2326	N2327	50.03	100	114.0	0.0	Open
P2322	N2327	N2328	50.00	100	114.0	0.0	Open
P2323	N2328	N2329	49.64	100	114.0	0.0	Open
P2324	N2329	N2330	50.11	100	114.0	0.0	Open
P2325	N2330	N2331	49.85	100	114.0	0.0	Open
P2326	N2331	N2332	48.84	100	114.0	0.0	Open
P2327	N2332	N2333	48.40	100	114.0	0.0	Open
P2328	N2333	N2334	50.55	100	114.0	0.0	Open
P2329	N2334	N2335	50.26	100	114.0	0.0	Open
P2330	N2335	N2336	49.86	100	114.0	0.0	Open
P2331	N2336	N2337	44.27	100	114.0	0.0	Open
P2332	N2337	CHAPWA_GSR04_IN	8.66	100	114.0	0.0	Open

[PUMPS]
;ID	Node1	Node2	Parameters
MOMBA_INTAKE_P1	MOMBA_INTAKE	MOMBA_INTAKE_PS	HEAD MOMBA_INTAKE_CURVE
MOMBA_INTAKE_P2	MOMBA_INTAKE	MOMBA_INTAKE_PS	HEAD MOMBA_INTAKE_CURVE
GRIT_TANK_P1	GRIT_TANK	GRIT_TANK_PS	HEAD GRIT_TANK_CURVE
GRIT_TANK_P2	GRIT_TANK	GRIT_TANK_PS	HEAD GRIT_TANK_CURVE
MOMBA_WTP_P1	MOMBA_WTP_CWT	MOMBA_WTP_PS	HEAD MOMBA_WTP_CURVE
MOMBA_WTP_P2	MOMBA_WTP_CWT	MOMBA_WTP_PS	HEAD MOMBA_WTP_CURVE
MOMBA_WTP_P3	MOMBA_WTP_CWT	MOMBA_WTP_PS	HEAD MOMBA_WTP_CURVE
MOMBA_WTP_P4	MOMBA_WTP_CWT	MOMBA_WTP_PS	HEAD MOMBA_WTP_CURVE
NKANGAMO_BPS_P1	NKANGAMO_BPS	NKANGAMO_BPS_PS	HEAD NKANGAMO_BPS_CURVE
NKANGAMO_BPS_P2	NKANGAMO_BPS	NKANGAMO_BPS_PS	HEAD NKANGAMO_BPS_CURVE
NKANGAMO_BPS_P3	NKANGAMO_BPS	NKANGAMO_BPS_PS	HEAD NKANGAMO_BPS_CURVE

[VALVES]
;ID	Node1	Node2	Diameter	Type	Setting	MinorLoss
IKANA_NKANGAMO_GM_FCV	NKANGAMO_BPS_IN	NKANGAMO_BPS_VD	600	FCV	231.481	0
UHURU_INLET_FCV	UHURU_PARK_GBR_IN	UHURU_PARK_GBR_VD	600	FCV	220.452	0
ESR_BRANCH_FCV	TUNDUMA_ESR_IN	TUNDUMA_ESR_VD	100	FCV	4.691	0
GSR01_BRANCH_FCV	UHURU_GSR01_IN	UHURU_GSR01_VD	150	FCV	19.527	0
IPITO_BRANCH_FCV	IPITO_GSR02_IN	IPITO_GSR02_VD	150	FCV	7.855	0
MAKAMBINI_BRANCH_FCV	MAKAMBINI_GSR03_IN	MAKAMBINI_GSR03_VD	100	FCV	7.2	0
CHAPWA_BRANCH_FCV	CHAPWA_GSR04_IN	CHAPWA_GSR04_VD	100	FCV	7.2	0

[STATUS]
MOMBA_INTAKE_P2	Closed
GRIT_TANK_P2	Closed
MOMBA_WTP_P4	Closed
NKANGAMO_BPS_P3	Closed

[CURVES]
;ID	Flow (l/s)	Head (m)
MOMBA_INTAKE_CURVE	271.53	12.05
GRIT_TANK_CURVE	271.53	17.42
MOMBA_WTP_CURVE	84.18	334.13
NKANGAMO_BPS_CURVE	126.26	188.23

[ENERGY]
 Global Efficiency	75
 Global Price	0

[OPTIONS]
 Units	LPS
 Headloss	H-W
 Specific Gravity	1.0
 Viscosity	1.0
 Trials	200
 Accuracy	0.001
 Unbalanced	Continue 10
 Demand Multiplier	1.0
 Quality	None

[TIMES]
 Duration	0:00
 Hydraulic Timestep	1:00
 Report Timestep	1:00

[REPORT]
 Status	Yes
 Summary	No

[COORDINATES]
;Node	X-Coord	Y-Coord
MOMBA_RIVER	419779.000	9021012.000
MOMBA_INTAKE	419903.257	9021140.650
MOMBA_INTAKE_PS	419923.257	9021150.650
MOMBA_INTAKE_DIS	419943.257	9021150.650
GRIT_TANK	419928.257	9021155.650
GRIT_TANK_PS	419948.257	9021165.650
GRIT_TANK_DIS	419968.257	9021165.650
MOMBA_WTP_INLET	420726.599	9020726.618
MOMBA_WTP_CWT	420756.599	9020706.618
MOMBA_WTP_PS	420776.599	9020716.618
MOMBA_WTP_DIS	420796.599	9020716.618
IKANA_GBR	434466.238	9008691.725
NKANGAMO_BPS	457553.932	8980530.671
NKANGAMO_BPS_PS	457573.932	8980540.671
NKANGAMO_BPS_DIS	457593.932	8980540.671
J-001N	474031.943	8972380.863
J-002N	474070.718	8972371.042
J-003N	474157.286	8972323.308
UHURU_PARK_GBR	474197.286	8972293.308
UHURU_PARK_GBR_DIST	474212.286	8972278.308
TUNDUMA_ESR	474001.943	8972405.863
TUNDUMA_ESR_DIST	474016.943	8972390.863
UHURU_GSR01	474050.718	8972336.042
UHURU_GSR01_DIST	474065.718	8972321.042
IPITO_GSR02	475873.011	8970043.325
IPITO_GSR02_DIST	475888.011	8970028.325
J-004N	475312.645	8971810.457
MAKAMBINI_GSR03	475562.645	8972060.457
MAKAMBINI_GSR03_DIST	475577.645	8972045.457
CHAPWA_GSR04	477275.327	8973019.055
CHAPWA_GSR04_DIST	477290.327	8973004.055
N0002	420024.133	9021093.259
N0003	420074.018	9021096.662
N0004	420123.902	9021100.065
N0005	420173.786	9021103.468
N0006	420223.670	9021106.870
N0007	420273.554	9021110.273
N0008	420323.438	9021113.676
N0009	420373.322	9021117.079
N0010	420423.206	9021120.482
N0011	420471.653	9021117.477
N0012	420500.148	9021076.391
N0013	420528.642	9021035.306
N0014	420557.137	9020994.220
N0015	420585.631	9020953.134
N0016	420614.126	9020912.048
N0017	420642.621	9020870.962
N0018	420671.115	9020829.876
N0019	420699.610	9020788.790
N0020	420728.105	9020747.704
N0022	420785.094	9020665.532
N0023	420813.589	9020624.446
N0024	420842.083	9020583.360
N0025	420870.578	9020542.274
N0026	420899.073	9020501.188
N0027	420927.567	9020460.102
N0028	420956.062	9020419.016
N0029	420984.556	9020377.930
N0030	421013.051	9020336.844
N0031	421041.546	9020295.758
N0032	421070.040	9020254.672
N0033	421098.535	9020213.587
N0034	421127.030	9020172.501
N0035	421155.524	9020131.415
N0036	421184.019	9020090.329
N0037	421212.514	9020049.243
N0038	421241.008	9020008.157
N0039	421269.503	9019967.071
N0040	421297.998	9019925.985
N0041	421326.492	9019884.899
N0042	421354.987	9019843.813
N0043	421383.482	9019802.727
N0044	421411.976	9019761.641
N0045	421440.471	9019720.555
N0046	421468.965	9019679.469
N0047	421497.460	9019638.383
N0048	421525.955	9019597.297
N0049	421554.449	9019556.211
N0050	421582.944	9019515.125
N0051	421611.439	9019474.039
N0052	421639.933	9019432.953
N0053	421668.428	9019391.867
N0054	421696.923	9019350.782
N0055	421725.417	9019309.696
N0056	421753.912	9019268.610
N0057	421782.407	9019227.524
N0058	421810.901	9019186.438
N0059	421844.619	9019199.534
N0060	421883.150	9019231.400
N0061	421921.680	9019263.266
N0062	421960.210	9019295.131
N0063	421998.741	9019326.997
N0064	422037.271	9019358.862
N0065	422075.801	9019390.728
N0066	422114.311	9019422.577
N0068	422043.641	9019348.392
N0069	422004.726	9019316.997
N0070	421965.811	9019285.603
N0071	421926.896	9019254.209
N0072	421887.981	9019222.814
N0073	421849.065	9019191.420
N0074	421829.867	9019159.269
N0075	421858.413	9019118.219
N0076	421886.959	9019077.168
N0077	421915.506	9019036.118
N0078	421944.052	9018995.068
N0079	421972.598	9018954.018
N0080	422001.144	9018912.968
N0081	422029.690	9018871.918
N0082	422058.236	9018830.867
N0083	422086.782	9018789.817
N0084	422115.329	9018748.767
N0085	422143.875	9018707.717
N0086	422172.421	9018666.667
N0087	422200.967	9018625.616
N0088	422229.513	9018584.566
N0089	422258.059	9018543.516
N0090	422286.605	9018502.466
N0091	422315.152	9018461.416
N0092	422343.698	9018420.365
N0093	422374.080	9018381.486
N0094	422412.030	9018348.932
N0095	422449.980	9018316.377
N0096	422487.930	9018283.822
N0097	422525.880	9018251.268
N0098	422563.830	9018218.713
N0099	422601.780	9018186.159
N0100	422639.729	9018153.604
N0101	422677.679	9018121.050
N0102	422715.629	9018088.495
N0103	422753.579	9018055.941
N0104	422791.529	9018023.386
N0105	422829.479	9017990.832
N0106	422867.429	9017958.277
N0107	422905.379	9017925.722
N0108	422943.329	9017893.168
N0109	422981.279	9017860.613
N0110	423019.229	9017828.059
N0111	423057.179	9017795.504
N0112	423095.129	9017762.950
N0113	423133.079	9017730.395
N0114	423171.029	9017697.841
N0115	423208.979	9017665.286
N0116	423246.929	9017632.732
N0117	423284.879	9017600.177
N0118	423322.829	9017567.622
N0119	423360.779	9017535.068
N0120	423398.729	9017502.513
N0121	423436.679	9017469.959
N0122	423474.629	9017437.404
N0123	423512.579	9017404.850
N0124	423550.529	9017372.295
N0125	423588.479	9017339.741
N0126	423626.429	9017307.186
N0127	423664.379	9017274.632
N0128	423702.329	9017242.077
N0129	423740.279	9017209.522
N0130	423778.229	9017176.968
N0131	423816.179	9017144.413
N0132	423854.129	9017111.859
N0133	423892.079	9017079.304
N0134	423930.029	9017046.750
N0135	423967.979	9017014.195
N0136	424005.929	9016981.641
N0137	424043.879	9016949.086
N0138	424081.829	9016916.531
N0139	424119.779	9016883.977
N0140	424157.729	9016851.422
N0141	424195.679	9016818.868
N0142	424233.629	9016786.313
N0143	424271.579	9016753.759
N0144	424309.529	9016721.204
N0145	424347.479	9016688.650
N0146	424385.429	9016656.095
N0147	424423.379	9016623.541
N0148	424461.329	9016590.986
N0149	424499.279	9016558.431
N0150	424537.229	9016525.877
N0151	424575.179	9016493.322
N0152	424613.129	9016460.768
N0153	424651.079	9016428.213
N0154	424689.029	9016395.659
N0155	424726.979	9016363.104
N0156	424764.929	9016330.550
N0157	424802.879	9016297.995
N0158	424840.829	9016265.441
N0159	424878.779	9016232.886
N0160	424916.729	9016200.331
N0161	424954.679	9016167.777
N0162	424992.629	9016135.222
N0163	425030.579	9016102.668
N0164	425068.529	9016070.113
N0165	425106.479	9016037.559
N0166	425144.429	9016005.004
N0167	425182.379	9015972.450
N0168	425220.329	9015939.895
N0169	425258.279	9015907.341
N0170	425296.229	9015874.786
N0171	425334.179	9015842.231
N0172	425372.129	9015809.677
N0173	425410.079	9015777.122
N0174	425448.029	9015744.568
N0175	425485.979	9015712.013
N0176	425523.928	9015679.459
N0177	425561.878	9015646.904
N0178	425599.828	9015614.350
N0179	425637.778	9015581.795
N0180	425675.728	9015549.241
N0181	425713.678	9015516.686
N0182	425751.628	9015484.131
N0183	425789.578	9015451.577
N0184	425827.528	9015419.022
N0185	425865.478	9015386.468
N0186	425903.428	9015353.913
N0187	425941.378	9015321.359
N0188	425979.328	9015288.804
N0189	426017.278	9015256.250
N0190	426055.228	9015223.695
N0191	426093.178	9015191.141
N0192	426131.128	9015158.586
N0193	426169.078	9015126.031
N0194	426207.028	9015093.477
N0195	426244.978	9015060.922
N0196	426282.928	9015028.368
N0197	426320.878	9014995.813
N0198	426358.828	9014963.259
N0199	426396.778	9014930.704
N0200	426434.728	9014898.150
N0201	426472.678	9014865.595
N0202	426510.628	9014833.041
N0203	426548.578	9014800.486
N0204	426586.528	9014767.931
N0205	426624.478	9014735.377
N0206	426662.428	9014702.822
N0207	426700.378	9014670.268
N0208	426738.328	9014637.713
N0209	426776.278	9014605.159
N0210	426814.228	9014572.604
N0211	426852.178	9014540.050
N0212	426890.128	9014507.495
N0213	426928.078	9014474.941
N0214	426966.028	9014442.386
N0215	427003.978	9014409.831
N0216	427041.928	9014377.277
N0217	427079.878	9014344.722
N0218	427117.828	9014312.168
N0219	427155.778	9014279.613
N0220	427193.728	9014247.059
N0221	427231.678	9014214.504
N0222	427269.628	9014181.950
N0223	427307.578	9014149.395
N0224	427345.528	9014116.840
N0225	427383.478	9014084.286
N0226	427421.428	9014051.731
N0227	427459.378	9014019.177
N0228	427497.328	9013986.622
N0229	427535.278	9013954.068
N0230	427573.228	9013921.513
N0231	427611.178	9013888.959
N0232	427649.128	9013856.404
N0233	427687.078	9013823.850
N0234	427725.028	9013791.295
N0235	427762.978	9013758.740
N0236	427800.928	9013726.186
N0237	427838.878	9013693.631
N0238	427876.828	9013661.077
N0239	427914.778	9013628.522
N0240	427952.728	9013595.968
N0241	427990.678	9013563.413
N0242	428028.628	9013530.859
N0243	428066.578	9013498.304
N0244	428104.528	9013465.750
N0245	428142.478	9013433.195
N0246	428180.428	9013400.640
N0247	428218.378	9013368.086
N0248	428256.328	9013335.531
N0249	428294.278	9013302.977
N0250	428332.228	9013270.422
N0251	428370.177	9013237.868
N0252	428408.127	9013205.313
N0253	428446.077	9013172.759
N0254	428484.027	9013140.204
N0255	428521.977	9013107.650
N0256	428559.927	9013075.095
N0257	428597.877	9013042.540
N0258	428635.827	9013009.986
N0259	428673.777	9012977.431
N0260	428711.727	9012944.877
N0261	428749.677	9012912.322
N0262	428787.627	9012879.768
N0263	428825.577	9012847.213
N0264	428863.527	9012814.659
N0265	428901.477	9012782.104
N0266	428939.427	9012749.550
N0267	428977.377	9012716.995
N0268	429015.327	9012684.440
N0269	429053.277	9012651.886
N0270	429091.227	9012619.331
N0271	429129.177	9012586.777
N0272	429167.127	9012554.222
N0273	429205.077	9012521.668
N0274	429243.027	9012489.113
N0275	429280.977	9012456.559
N0276	429318.927	9012424.004
N0277	429356.877	9012391.450
N0278	429394.827	9012358.895
N0279	429432.777	9012326.340
N0280	429470.727	9012293.786
N0281	429508.677	9012261.231
N0282	429546.627	9012228.677
N0283	429584.577	9012196.122
N0284	429622.527	9012163.568
N0285	429660.477	9012131.013
N0286	429698.427	9012098.459
N0287	429736.377	9012065.904
N0288	429774.327	9012033.350
N0289	429812.277	9012000.795
N0290	429850.227	9011968.240
N0291	429888.177	9011935.686
N0292	429926.127	9011903.131
N0293	429964.077	9011870.577
N0294	430002.027	9011838.022
N0295	430039.977	9011805.468
N0296	430077.927	9011772.913
N0297	430115.877	9011740.359
N0298	430153.827	9011707.804
N0299	430191.777	9011675.249
N0300	430229.727	9011642.695
N0301	430267.677	9011610.140
N0302	430305.627	9011577.586
N0303	430343.577	9011545.031
N0304	430381.527	9011512.477
N0305	430419.477	9011479.922
N0306	430457.427	9011447.368
N0307	430495.377	9011414.813
N0308	430533.327	9011382.259
N0309	430571.277	9011349.704
N0310	430609.227	9011317.149
N0311	430647.177	9011284.595
N0312	430685.127	9011252.040
N0313	430723.077	9011219.486
N0314	430761.027	9011186.931
N0315	430798.977	9011154.377
N0316	430836.927	9011121.822
N0317	430874.877	9011089.268
N0318	430912.827	9011056.713
N0319	430950.777	9011024.159
N0320	430988.727	9010991.604
N0321	431026.677	9010959.049
N0322	431064.627	9010926.495
N0323	431102.577	9010893.940
N0324	431140.527	9010861.386
N0325	431178.477	9010828.831
N0326	431216.426	9010796.277
N0327	431254.376	9010763.722
N0328	431292.326	9010731.168
N0329	431330.276	9010698.613
N0330	431368.226	9010666.059
N0331	431406.176	9010633.504
N0332	431444.126	9010600.949
N0333	431482.076	9010568.395
N0334	431520.026	9010535.840
N0335	431557.976	9010503.286
N0336	431595.926	9010470.731
N0337	431633.876	9010438.177
N0338	431671.826	9010405.622
N0339	431709.776	9010373.068
N0340	431747.726	9010340.513
N0341	431785.676	9010307.959
N0342	431823.626	9010275.404
N0343	431861.576	9010242.849
N0344	431899.526	9010210.295
N0345	431937.476	9010177.740
N0346	431975.426	9010145.186
N0347	432013.376	9010112.631
N0348	432051.326	9010080.077
N0349	432089.276	9010047.522
N0350	432127.226	9010014.968
N0351	432165.176	9009982.413
N0352	432203.126	9009949.859
N0353	432241.076	9009917.304
N0354	432279.026	9009884.749
N0355	432316.976	9009852.195
N0356	432354.926	9009819.640
N0357	432392.876	9009787.086
N0358	432430.826	9009754.531
N0359	432468.776	9009721.977
N0360	432506.726	9009689.422
N0361	432544.676	9009656.868
N0362	432582.626	9009624.313
N0363	432620.576	9009591.759
N0364	432658.526	9009559.204
N0365	432696.476	9009526.649
N0366	432734.426	9009494.095
N0367	432772.376	9009461.540
N0368	432810.326	9009428.986
N0369	432848.276	9009396.431
N0370	432886.226	9009363.877
N0371	432924.176	9009331.322
N0372	432962.126	9009298.768
N0373	433000.076	9009266.213
N0374	433038.026	9009233.658
N0375	433075.976	9009201.104
N0376	433113.926	9009168.549
N0377	433151.876	9009135.995
N0378	433189.826	9009103.440
N0379	433227.776	9009070.886
N0380	433265.726	9009038.331
N0381	433303.676	9009005.777
N0382	433341.626	9008973.222
N0383	433379.576	9008940.668
N0384	433417.526	9008908.113
N0385	433455.476	9008875.558
N0386	433493.426	9008843.004
N0387	433531.376	9008810.449
N0388	433569.326	9008777.895
N0389	433607.276	9008745.340
N0390	433645.226	9008712.786
N0391	433683.176	9008680.231
N0392	433721.126	9008647.677
N0393	433759.076	9008615.122
N0394	433797.026	9008582.568
N0395	433836.012	9008563.167
N0396	433883.373	9008579.195
N0397	433930.734	9008595.224
N0398	433978.095	9008611.252
N0399	434025.457	9008627.280
N0400	434072.818	9008643.309
N0401	434120.179	9008659.337
N0402	434167.540	9008675.366
N0403	434496.192	9008830.930
N0404	434499.991	9008811.295
N0405	434503.791	9008791.659
N0406	434507.590	9008772.023
N0407	434499.781	9008780.790
N0408	434516.265	9008808.858
N0409	434516.019	9008779.550
N0410	434515.189	9008732.751
N0411	434463.622	9008711.553
NKANGAMO_BPS_IN	457538.932	8980545.671
NKANGAMO_BPS_VD	457545.932	8980538.671
N0413	434318.257	9008679.226
N0414	434269.907	9008670.447
N0415	434219.985	9008673.242
N0416	434171.242	9008672.199
N0417	434124.265	9008655.075
N0418	434077.289	9008637.952
N0419	434030.312	9008620.828
N0420	433983.336	9008603.705
N0421	433936.359	9008586.581
N0422	433889.383	9008569.458
N0423	433842.407	9008552.334
N0424	433866.866	9008521.937
N0425	433902.178	9008486.539
N0426	433937.491	9008451.140
N0427	433972.803	9008415.742
N0428	433997.662	9008378.860
N0429	433957.393	9008349.221
N0430	433949.884	9008306.713
N0431	433955.025	9008256.978
N0432	433960.166	9008207.243
N0433	433965.307	9008157.508
N0434	433970.447	9008107.773
N0435	433975.588	9008058.038
N0436	433980.729	9008008.303
N0437	433985.870	9007958.568
N0438	433991.010	9007908.833
N0439	433996.151	9007859.098
N0440	434001.292	9007809.363
N0441	434006.433	9007759.628
N0442	434011.573	9007709.893
N0443	434016.714	9007660.158
N0444	434021.855	9007610.423
N0445	434026.996	9007560.688
N0446	434032.137	9007510.953
N0447	434037.277	9007461.218
N0448	434042.418	9007411.483
N0449	434047.559	9007361.748
N0450	434052.700	9007312.013
N0451	434057.840	9007262.278
N0452	434062.981	9007212.543
N0453	434068.122	9007162.808
N0454	434073.263	9007113.073
N0455	434078.403	9007063.338
N0456	434083.544	9007013.603
N0457	434088.685	9006963.868
N0458	434093.826	9006914.133
N0459	434098.967	9006864.398
N0460	434104.107	9006814.663
N0461	434109.248	9006764.928
N0462	434114.389	9006715.192
N0463	434119.530	9006665.457
N0464	434124.670	9006615.722
N0465	434129.811	9006565.987
N0466	434134.952	9006516.252
N0467	434140.093	9006466.517
N0468	434158.771	9006423.783
N0469	434192.117	9006386.527
N0470	434225.463	9006349.271
N0471	434258.810	9006312.015
N0472	434292.156	9006274.758
N0473	434325.502	9006237.502
N0474	434358.848	9006200.246
N0475	434392.194	9006162.990
N0476	434425.541	9006125.733
N0477	434458.887	9006088.477
N0478	434492.233	9006051.221
N0479	434525.579	9006013.965
N0480	434558.926	9005976.708
N0481	434592.272	9005939.452
N0482	434625.618	9005902.196
N0483	434658.964	9005864.940
N0484	434692.311	9005827.683
N0485	434725.657	9005790.427
N0486	434759.003	9005753.171
N0487	434792.349	9005715.915
N0488	434825.695	9005678.658
N0489	434859.042	9005641.402
N0490	434892.388	9005604.146
N0491	434925.734	9005566.889
N0492	434959.080	9005529.633
N0493	434992.427	9005492.377
N0494	435025.773	9005455.121
N0495	435059.119	9005417.864
N0496	435092.465	9005380.608
N0497	435125.812	9005343.352
N0498	435159.158	9005306.096
N0499	435192.504	9005268.839
N0500	435225.850	9005231.583
N0501	435259.196	9005194.327
N0502	435292.543	9005157.071
N0503	435325.889	9005119.814
N0504	435359.235	9005082.558
N0505	435392.581	9005045.302
N0506	435425.928	9005008.046
N0507	435459.274	9004970.789
N0508	435492.620	9004933.533
N0509	435525.966	9004896.277
N0510	435559.313	9004859.021
N0511	435592.659	9004821.764
N0512	435626.005	9004784.508
N0513	435659.351	9004747.252
N0514	435692.697	9004709.995
N0515	435726.044	9004672.739
N0516	435759.390	9004635.483
N0517	435792.736	9004598.227
N0518	435826.116	9004561.006
N0519	435859.564	9004523.841
N0520	435893.012	9004486.677
N0521	435926.461	9004449.512
N0522	435959.909	9004412.347
N0523	435993.357	9004375.183
N0524	436026.806	9004338.018
N0525	436060.254	9004300.854
N0526	436093.702	9004263.689
N0527	436127.151	9004226.524
N0528	436160.599	9004189.360
N0529	436194.047	9004152.195
N0530	436227.496	9004115.031
N0531	436260.944	9004077.866
N0532	436294.393	9004040.701
N0533	436327.841	9004003.537
N0534	436361.289	9003966.372
N0535	436394.738	9003929.208
N0536	436428.186	9003892.043
N0537	436461.634	9003854.878
N0538	436495.083	9003817.714
N0539	436528.531	9003780.549
N0540	436561.979	9003743.385
N0541	436595.428	9003706.220
N0542	436628.876	9003669.055
N0543	436662.324	9003631.891
N0544	436694.293	9003593.211
N0545	436715.044	9003547.720
N0546	436735.795	9003502.230
N0547	436756.546	9003456.739
N0548	436777.296	9003411.248
N0549	436798.047	9003365.758
N0550	436818.798	9003320.267
N0551	436839.549	9003274.776
N0552	436860.300	9003229.286
N0553	436881.050	9003183.795
N0554	436901.801	9003138.304
N0555	436922.552	9003092.813
N0556	436943.303	9003047.323
N0557	436964.054	9003001.832
N0558	436984.805	9002956.341
N0559	437005.555	9002910.851
N0560	437026.306	9002865.360
N0561	437047.057	9002819.869
N0562	437067.808	9002774.379
N0563	437088.559	9002728.888
N0564	437109.310	9002683.397
N0565	437123.447	9002635.696
N0566	437126.408	9002585.784
N0567	437144.251	9002541.287
N0568	437170.266	9002498.588
N0569	437196.281	9002455.889
N0570	437222.295	9002413.189
N0571	437248.310	9002370.490
N0572	437274.325	9002327.791
N0573	437298.832	9002284.090
N0574	437319.612	9002238.613
N0575	437340.393	9002193.136
N0576	437361.174	9002147.659
N0577	437381.954	9002102.182
N0578	437402.735	9002056.705
N0579	437423.516	9002011.227
N0580	437444.296	9001965.750
N0581	437465.077	9001920.273
N0582	437485.858	9001874.796
N0583	437506.638	9001829.319
N0584	437527.419	9001783.842
N0585	437548.200	9001738.365
N0586	437568.980	9001692.888
N0587	437589.761	9001647.411
N0588	437610.541	9001601.934
N0589	437631.322	9001556.457
N0590	437652.103	9001510.980
N0591	437672.883	9001465.503
N0592	437693.664	9001420.026
N0593	437714.445	9001374.548
N0594	437735.225	9001329.071
N0595	437756.006	9001283.594
N0596	437776.787	9001238.117
N0597	437797.567	9001192.640
N0598	437818.348	9001147.163
N0599	437839.129	9001101.686
N0600	437859.909	9001056.209
N0601	437880.690	9001010.732
N0602	437901.471	9000965.255
N0603	437922.251	9000919.778
N0604	437943.032	9000874.301
N0605	437964.124	9000828.980
N0606	437985.259	9000783.666
N0607	438006.393	9000738.353
N0608	438027.528	9000693.039
N0609	438048.663	9000647.726
N0610	438069.798	9000602.412
N0611	438090.932	9000557.098
N0612	438112.067	9000511.785
N0613	438133.202	9000466.471
N0614	438154.337	9000421.158
N0615	438175.471	9000375.844
N0616	438196.606	9000330.531
N0617	438217.741	9000285.217
N0618	438238.876	9000239.903
N0619	438260.010	9000194.590
N0620	438281.145	9000149.276
N0621	438302.280	9000103.963
N0622	438323.415	9000058.649
N0623	438344.549	9000013.335
N0624	438365.684	8999968.022
N0625	438386.819	8999922.708
N0626	438407.954	8999877.395
N0627	438429.088	8999832.081
N0628	438450.223	8999786.767
N0629	438471.358	8999741.454
N0630	438492.493	8999696.140
N0631	438513.627	8999650.827
N0632	438534.762	8999605.513
N0633	438555.897	8999560.199
N0634	438577.032	8999514.886
N0635	438598.166	8999469.572
N0636	438619.301	8999424.259
N0637	438640.436	8999378.945
N0638	438661.571	8999333.631
N0639	438682.705	8999288.318
N0640	438703.840	8999243.004
N0641	438724.975	8999197.691
N0642	438746.110	8999152.377
N0643	438767.244	8999107.063
N0644	438788.379	8999061.750
N0645	438809.514	8999016.436
N0646	438830.649	8998971.123
N0647	438851.783	8998925.809
N0648	438872.918	8998880.495
N0649	438894.053	8998835.182
N0650	438915.188	8998789.868
N0651	438936.322	8998744.555
N0652	438957.457	8998699.241
N0653	438978.592	8998653.927
N0654	438999.727	8998608.614
N0655	439020.845	8998563.280
N0656	439041.645	8998517.812
N0657	439062.445	8998472.344
N0658	439083.245	8998426.876
N0659	439104.045	8998381.407
N0660	439124.845	8998335.939
N0661	439145.645	8998290.471
N0662	439166.445	8998245.003
N0663	439187.246	8998199.535
N0664	439208.046	8998154.067
N0665	439228.846	8998108.598
N0666	439249.646	8998063.130
N0667	439270.446	8998017.662
N0668	439291.246	8997972.194
N0669	439312.046	8997926.726
N0670	439332.847	8997881.258
N0671	439353.647	8997835.789
N0672	439374.447	8997790.321
N0673	439395.247	8997744.853
N0674	439416.047	8997699.385
N0675	439436.969	8997654.133
N0676	439461.811	8997610.741
N0677	439486.653	8997567.348
N0678	439511.495	8997523.956
N0679	439536.337	8997480.564
N0680	439561.179	8997437.172
N0681	439586.021	8997393.780
N0682	439610.863	8997350.388
N0683	439635.705	8997306.996
N0684	439660.547	8997263.604
N0685	439685.389	8997220.212
N0686	439710.231	8997176.820
N0687	439735.073	8997133.428
N0688	439759.915	8997090.035
N0689	439784.757	8997046.643
N0690	439809.599	8997003.251
N0691	439834.442	8996959.859
N0692	439859.284	8996916.467
N0693	439884.126	8996873.075
N0694	439908.968	8996829.683
N0695	439933.810	8996786.291
N0696	439958.652	8996742.899
N0697	439983.494	8996699.507
N0698	440008.336	8996656.114
N0699	440033.178	8996612.722
N0700	440058.020	8996569.330
N0701	440082.862	8996525.938
N0702	440107.704	8996482.546
N0703	440132.546	8996439.154
N0704	440157.388	8996395.762
N0705	440182.230	8996352.370
N0706	440206.993	8996308.925
N0707	440231.636	8996265.420
N0708	440256.280	8996221.915
N0709	440280.923	8996178.409
N0710	440305.567	8996134.904
N0711	440330.210	8996091.399
N0712	440354.854	8996047.894
N0713	440379.498	8996004.389
N0714	440404.141	8995960.884
N0715	440428.785	8995917.379
N0716	440453.428	8995873.874
N0717	440477.915	8995830.273
N0718	440502.367	8995786.660
N0719	440526.819	8995743.047
N0720	440551.271	8995699.433
N0721	440575.723	8995655.820
N0722	440600.175	8995612.207
N0723	440624.627	8995568.594
N0724	440649.079	8995524.981
N0725	440673.530	8995481.368
N0726	440697.982	8995437.754
N0727	440722.434	8995394.141
N0728	440746.886	8995350.528
N0729	440771.338	8995306.915
N0730	440795.790	8995263.302
N0731	440820.242	8995219.689
N0732	440844.693	8995176.076
N0733	440869.145	8995132.462
N0734	440893.597	8995088.849
N0735	440918.049	8995045.236
N0736	440942.501	8995001.623
N0737	440966.953	8994958.010
N0738	440991.405	8994914.397
N0739	441015.856	8994870.784
N0740	441040.308	8994827.170
N0741	441064.760	8994783.557
N0742	441089.212	8994739.944
N0743	441113.664	8994696.331
N0744	441138.116	8994652.718
N0745	441162.568	8994609.105
N0746	441187.266	8994565.650
N0747	441212.190	8994522.305
N0748	441237.114	8994478.960
N0749	441262.038	8994435.615
N0750	441286.962	8994392.270
N0751	441311.886	8994348.925
N0752	441336.810	8994305.580
N0753	441361.734	8994262.235
N0754	441386.658	8994218.890
N0755	441411.582	8994175.545
N0756	441436.506	8994132.200
N0757	441461.431	8994088.855
N0758	441486.355	8994045.510
N0759	441511.279	8994002.165
N0760	441536.203	8993958.820
N0761	441561.127	8993915.475
N0762	441586.051	8993872.130
N0763	441610.975	8993828.785
N0764	441635.899	8993785.440
N0765	441660.823	8993742.095
N0766	441685.747	8993698.750
N0767	441710.672	8993655.405
N0768	441735.596	8993612.060
N0769	441760.520	8993568.715
N0770	441785.444	8993525.370
N0771	441810.368	8993482.025
N0772	441835.292	8993438.680
N0773	441860.216	8993395.335
N0774	441885.140	8993351.990
N0775	441910.064	8993308.645
N0776	441934.988	8993265.300
N0777	441959.912	8993221.955
N0778	441984.837	8993178.610
N0779	442009.761	8993135.265
N0780	442034.685	8993091.920
N0781	442059.609	8993048.575
N0782	442096.630	8993016.291
N0783	442135.550	8992984.902
N0784	442174.470	8992953.513
N0785	442213.390	8992922.125
N0786	442252.310	8992890.736
N0787	442291.230	8992859.348
N0788	442330.149	8992827.959
N0789	442369.069	8992796.571
N0790	442407.989	8992765.182
N0791	442446.909	8992733.793
N0792	442485.829	8992702.405
N0793	442524.749	8992671.016
N0794	442563.669	8992639.628
N0795	442602.589	8992608.239
N0796	442641.509	8992576.851
N0797	442680.428	8992545.462
N0798	442719.348	8992514.073
N0799	442758.268	8992482.685
N0800	442797.188	8992451.296
N0801	442836.108	8992419.908
N0802	442875.028	8992388.519
N0803	442913.948	8992357.131
N0804	442952.868	8992325.742
N0805	442991.788	8992294.354
N0806	443030.707	8992262.965
N0807	443069.627	8992231.576
N0808	443108.547	8992200.188
N0809	443147.467	8992168.799
N0810	443186.387	8992137.411
N0811	443225.307	8992106.022
N0812	443264.227	8992074.634
N0813	443303.147	8992043.245
N0814	443342.067	8992011.856
N0815	443380.986	8991980.468
N0816	443419.906	8991949.079
N0817	443458.826	8991917.691
N0818	443497.746	8991886.302
N0819	443536.666	8991854.914
N0820	443575.586	8991823.525
N0821	443614.506	8991792.136
N0822	443653.426	8991760.748
N0823	443692.346	8991729.359
N0824	443731.265	8991697.971
N0825	443770.185	8991666.582
N0826	443809.105	8991635.194
N0827	443848.025	8991603.805
N0828	443886.945	8991572.416
N0829	443925.865	8991541.028
N0830	443964.785	8991509.639
N0831	444003.705	8991478.251
N0832	444042.625	8991446.862
N0833	444081.544	8991415.474
N0834	444120.464	8991384.085
N0835	444159.384	8991352.696
N0836	444198.304	8991321.308
N0837	444237.224	8991289.919
N0838	444276.144	8991258.531
N0839	444315.064	8991227.142
N0840	444353.984	8991195.754
N0841	444392.904	8991164.365
N0842	444431.823	8991132.976
N0843	444470.743	8991101.588
N0844	444509.663	8991070.199
N0845	444548.583	8991038.811
N0846	444587.503	8991007.422
N0847	444626.423	8990976.034
N0848	444665.343	8990944.645
N0849	444704.263	8990913.257
N0850	444743.183	8990881.868
N0851	444782.102	8990850.479
N0852	444821.022	8990819.091
N0853	444859.942	8990787.702
N0854	444898.862	8990756.314
N0855	444937.782	8990724.925
N0856	444976.702	8990693.537
N0857	445015.622	8990662.148
N0858	445054.542	8990630.759
N0859	445093.462	8990599.371
N0860	445132.381	8990567.982
N0861	445171.301	8990536.594
N0862	445210.221	8990505.205
N0863	445249.141	8990473.817
N0864	445288.061	8990442.428
N0865	445326.981	8990411.039
N0866	445365.901	8990379.651
N0867	445404.821	8990348.262
N0868	445443.741	8990316.874
N0869	445482.660	8990285.485
N0870	445521.580	8990254.097
N0871	445560.500	8990222.708
N0872	445599.420	8990191.319
N0873	445638.340	8990159.931
N0874	445677.260	8990128.542
N0875	445716.180	8990097.154
N0876	445755.100	8990065.765
N0877	445794.020	8990034.377
N0878	445832.939	8990002.988
N0879	445871.859	8989971.599
N0880	445910.779	8989940.211
N0881	445949.699	8989908.822
N0882	445988.619	8989877.434
N0883	446027.539	8989846.045
N0884	446066.459	8989814.657
N0885	446105.379	8989783.268
N0886	446144.299	8989751.879
N0887	446183.218	8989720.491
N0888	446222.138	8989689.102
N0889	446261.058	8989657.714
N0890	446299.978	8989626.325
N0891	446338.898	8989594.937
N0892	446377.818	8989563.548
N0893	446416.738	8989532.160
N0894	446455.658	8989500.771
N0895	446494.578	8989469.382
N0896	446533.497	8989437.994
N0897	446572.417	8989406.605
N0898	446611.337	8989375.217
N0899	446650.257	8989343.828
N0900	446689.177	8989312.440
N0901	446728.097	8989281.051
N0902	446767.017	8989249.662
N0903	446805.937	8989218.274
N0904	446844.857	8989186.885
N0905	446883.776	8989155.497
N0906	446922.696	8989124.108
N0907	446961.616	8989092.720
N0908	447000.536	8989061.331
N0909	447039.456	8989029.942
N0910	447078.376	8988998.554
N0911	447117.296	8988967.165
N0912	447156.216	8988935.777
N0913	447195.136	8988904.388
N0914	447234.055	8988873.000
N0915	447272.975	8988841.611
N0916	447311.895	8988810.222
N0917	447350.815	8988778.834
N0918	447389.735	8988747.445
N0919	447428.655	8988716.057
N0920	447467.575	8988684.668
N0921	447506.495	8988653.280
N0922	447545.415	8988621.891
N0923	447584.334	8988590.502
N0924	447623.254	8988559.114
N0925	447662.174	8988527.725
N0926	447701.094	8988496.337
N0927	447740.014	8988464.948
N0928	447778.934	8988433.560
N0929	447817.854	8988402.171
N0930	447856.774	8988370.782
N0931	447895.694	8988339.394
N0932	447934.613	8988308.005
N0933	447973.533	8988276.617
N0934	448012.453	8988245.228
N0935	448051.373	8988213.840
N0936	448098.170	8988198.404
N0937	448145.910	8988183.545
N0938	448193.651	8988168.685
N0939	448241.392	8988153.826
N0940	448289.133	8988138.966
N0941	448336.874	8988124.107
N0942	448384.615	8988109.247
N0943	448432.356	8988094.388
N0944	448480.097	8988079.528
N0945	448527.838	8988064.669
N0946	448575.579	8988049.809
N0947	448623.320	8988034.950
N0948	448671.061	8988020.090
N0949	448718.802	8988005.231
N0950	448766.542	8987990.371
N0951	448814.283	8987975.512
N0952	448862.024	8987960.652
N0953	448909.765	8987945.793
N0954	448957.506	8987930.933
N0955	449005.247	8987916.074
N0956	449052.988	8987901.214
N0957	449100.729	8987886.355
N0958	449148.470	8987871.495
N0959	449196.211	8987856.636
N0960	449243.952	8987841.776
N0961	449291.693	8987826.917
N0962	449339.434	8987812.057
N0963	449387.174	8987797.198
N0964	449434.915	8987782.339
N0965	449482.656	8987767.479
N0966	449530.397	8987752.620
N0967	449578.138	8987737.760
N0968	449625.879	8987722.901
N0969	449673.620	8987708.041
N0970	449721.361	8987693.182
N0971	449769.102	8987678.322
N0972	449816.843	8987663.463
N0973	449864.584	8987648.603
N0974	449912.325	8987633.744
N0975	449960.066	8987618.884
N0976	450007.806	8987604.025
N0977	450055.547	8987589.165
N0978	450103.288	8987574.306
N0979	450151.029	8987559.446
N0980	450198.770	8987544.587
N0981	450246.511	8987529.727
N0982	450294.252	8987514.868
N0983	450341.993	8987500.008
N0984	450389.734	8987485.149
N0985	450437.475	8987470.289
N0986	450485.241	8987455.528
N0987	450533.032	8987440.830
N0988	450580.823	8987426.132
N0989	450628.613	8987411.434
N0990	450676.404	8987396.736
N0991	450724.195	8987382.038
N0992	450771.986	8987367.340
N0993	450819.777	8987352.642
N0994	450867.568	8987337.945
N0995	450915.359	8987323.247
N0996	450963.150	8987308.549
N0997	451010.941	8987293.851
N0998	451058.732	8987279.153
N0999	451106.523	8987264.455
N1000	451154.313	8987249.757
N1001	451202.104	8987235.059
N1002	451249.895	8987220.361
N1003	451297.686	8987205.663
N1004	451345.477	8987190.965
N1005	451393.268	8987176.267
N1006	451441.059	8987161.570
N1007	451488.850	8987146.872
N1008	451536.641	8987132.174
N1009	451584.432	8987117.476
N1010	451632.223	8987102.778
N1011	451680.013	8987088.080
N1012	451727.804	8987073.382
N1013	451775.595	8987058.684
N1014	451823.386	8987043.986
N1015	451871.177	8987029.288
N1016	451918.968	8987014.590
N1017	451966.759	8986999.892
N1018	452002.719	8986965.408
N1019	452035.707	8986927.834
N1020	452068.695	8986890.259
N1021	452101.682	8986852.685
N1022	452134.670	8986815.111
N1023	452167.658	8986777.537
N1024	452200.645	8986739.963
N1025	452233.633	8986702.389
N1026	452266.621	8986664.815
N1027	452299.608	8986627.240
N1028	452332.596	8986589.666
N1029	452365.583	8986552.092
N1030	452398.571	8986514.518
N1031	452431.559	8986476.944
N1032	452464.546	8986439.370
N1033	452497.534	8986401.796
N1034	452530.522	8986364.221
N1035	452563.509	8986326.647
N1036	452596.497	8986289.073
N1037	452629.484	8986251.499
N1038	452662.472	8986213.925
N1039	452695.460	8986176.351
N1040	452728.447	8986138.777
N1041	452761.435	8986101.202
N1042	452794.423	8986063.628
N1043	452827.410	8986026.054
N1044	452860.398	8985988.480
N1045	452893.386	8985950.906
N1046	452926.373	8985913.332
N1047	452959.361	8985875.758
N1048	452992.348	8985838.183
N1049	453025.336	8985800.609
N1050	453058.324	8985763.035
N1051	453091.311	8985725.461
N1052	453124.299	8985687.887
N1053	453157.287	8985650.313
N1054	453190.274	8985612.739
N1055	453223.262	8985575.164
N1056	453256.249	8985537.590
N1057	453289.237	8985500.016
N1058	453322.225	8985462.442
N1059	453355.212	8985424.868
N1060	453388.200	8985387.294
N1061	453421.188	8985349.720
N1062	453454.175	8985312.145
N1063	453487.163	8985274.571
N1064	453520.151	8985236.997
N1065	453553.138	8985199.423
N1066	453586.126	8985161.849
N1067	453619.113	8985124.275
N1068	453652.101	8985086.701
N1069	453685.089	8985049.126
N1070	453718.076	8985011.552
N1071	453751.064	8984973.978
N1072	453784.052	8984936.404
N1073	453817.039	8984898.830
N1074	453850.027	8984861.256
N1075	453883.014	8984823.682
N1076	453916.002	8984786.107
N1077	453948.990	8984748.533
N1078	453981.977	8984710.959
N1079	454014.965	8984673.385
N1080	454047.953	8984635.811
N1081	454080.940	8984598.237
N1082	454113.928	8984560.663
N1083	454146.916	8984523.088
N1084	454179.903	8984485.514
N1085	454212.891	8984447.940
N1086	454245.878	8984410.366
N1087	454278.866	8984372.792
N1088	454311.854	8984335.218
N1089	454344.841	8984297.644
N1090	454377.829	8984260.069
N1091	454410.817	8984222.495
N1092	454443.804	8984184.921
N1093	454476.792	8984147.347
N1094	454509.779	8984109.773
N1095	454542.767	8984072.199
N1096	454575.755	8984034.625
N1097	454608.742	8983997.050
N1098	454641.730	8983959.476
N1099	454674.706	8983921.889
N1100	454707.632	8983884.260
N1101	454740.558	8983846.632
N1102	454773.484	8983809.004
N1103	454806.410	8983771.376
N1104	454839.336	8983733.748
N1105	454872.262	8983696.120
N1106	454905.188	8983658.492
N1107	454938.115	8983620.864
N1108	454971.041	8983583.236
N1109	455003.967	8983545.608
N1110	455036.893	8983507.980
N1111	455069.819	8983470.352
N1112	455102.745	8983432.724
N1113	455135.671	8983395.095
N1114	455168.597	8983357.467
N1115	455201.523	8983319.839
N1116	455234.449	8983282.211
N1117	455267.376	8983244.583
N1118	455300.302	8983206.955
N1119	455333.228	8983169.327
N1120	455366.154	8983131.699
N1121	455399.080	8983094.071
N1122	455432.006	8983056.443
N1123	455464.932	8983018.815
N1124	455497.858	8982981.187
N1125	455530.784	8982943.559
N1126	455563.710	8982905.931
N1127	455596.675	8982868.345
N1128	455629.763	8982830.859
N1129	455662.851	8982793.373
N1130	455695.939	8982755.887
N1131	455729.027	8982718.401
N1132	455762.115	8982680.916
N1133	455795.203	8982643.430
N1134	455828.291	8982605.944
N1135	455861.378	8982568.458
N1136	455894.466	8982530.972
N1137	455927.554	8982493.486
N1138	455960.583	8982455.942
N1139	455993.544	8982418.345
N1140	456026.506	8982380.747
N1141	456059.467	8982343.150
N1142	456092.428	8982305.552
N1143	456125.389	8982267.955
N1144	456158.350	8982230.358
N1145	456191.311	8982192.760
N1146	456224.272	8982155.163
N1147	456257.234	8982117.565
N1148	456290.195	8982079.968
N1149	456323.156	8982042.371
N1150	456356.117	8982004.773
N1151	456389.078	8981967.176
N1152	456422.039	8981929.579
N1153	456455.000	8981891.981
N1154	456487.962	8981854.384
N1155	456520.923	8981816.786
N1156	456553.884	8981779.189
N1157	456586.845	8981741.592
N1158	456619.806	8981703.994
N1159	456652.767	8981666.397
N1160	456685.728	8981628.800
N1161	456718.690	8981591.202
N1162	456751.651	8981553.605
N1163	456784.612	8981516.007
N1164	456817.573	8981478.410
N1165	456850.534	8981440.813
N1166	456883.495	8981403.215
N1167	456916.456	8981365.618
N1168	456949.418	8981328.020
N1169	456982.379	8981290.423
N1170	457015.340	8981252.826
N1171	457048.301	8981215.228
N1172	457081.262	8981177.631
N1173	457114.223	8981140.034
N1174	457147.184	8981102.436
N1175	457180.146	8981064.839
N1176	457213.107	8981027.241
N1177	457246.090	8980989.678
N1178	457279.326	8980952.323
N1179	457312.562	8980914.969
N1180	457345.798	8980877.614
N1181	457379.034	8980840.260
N1182	457412.270	8980802.905
N1183	457445.506	8980765.551
N1184	457478.742	8980728.196
N1185	457608.380	8980387.636
N1186	457617.826	8980370.007
N1187	457627.272	8980352.378
N1188	457636.717	8980334.749
N1189	457646.163	8980317.120
N1190	457655.608	8980299.491
N1191	457665.054	8980281.862
N1192	457674.500	8980264.233
N1193	457683.945	8980246.604
N1194	457693.391	8980228.975
N1195	457702.837	8980211.346
N1196	457712.282	8980193.717
N1197	457721.728	8980176.088
N1198	457731.173	8980158.459
N1199	457740.619	8980140.830
N1200	457750.065	8980123.201
N1201	457759.510	8980105.572
N1202	457768.956	8980087.944
N1203	457778.402	8980070.315
N1204	457787.847	8980052.686
N1205	457797.293	8980035.057
N1206	457806.739	8980017.428
N1207	457816.184	8979999.799
N1208	457825.630	8979982.170
N1209	457835.075	8979964.541
N1210	457844.521	8979946.912
N1211	457853.967	8979929.283
N1212	457863.412	8979911.654
N1213	457872.858	8979894.025
N1214	457882.304	8979876.396
N1215	457891.749	8979858.767
N1216	457901.195	8979841.138
N1217	457910.641	8979823.509
N1218	457920.086	8979805.880
N1219	457929.532	8979788.251
N1220	457938.977	8979770.622
N1221	457948.423	8979752.993
N1222	457957.869	8979735.364
N1223	457967.314	8979717.736
N1224	457976.760	8979700.107
N1225	457986.206	8979682.478
N1226	457995.651	8979664.849
N1227	458005.097	8979647.220
N1228	458014.543	8979629.591
N1229	458023.988	8979611.962
N1230	458033.434	8979594.333
N1231	458042.879	8979576.704
N1232	458052.325	8979559.075
N1233	458061.265	8979542.110
N1234	458078.631	8979532.190
N1235	458095.997	8979522.270
N1236	458113.364	8979512.350
N1237	458130.730	8979502.429
N1238	458148.096	8979492.509
N1239	458165.463	8979482.589
N1240	458182.829	8979472.669
N1241	458200.195	8979462.748
N1242	458217.562	8979452.828
N1243	458234.928	8979442.908
N1244	458252.294	8979432.988
N1245	458269.661	8979423.068
N1246	458287.027	8979413.147
N1247	458304.393	8979403.227
N1248	458321.760	8979393.307
N1249	458339.126	8979383.387
N1250	458356.492	8979373.467
N1251	458373.859	8979363.546
N1252	458391.225	8979353.626
N1253	458408.591	8979343.706
N1254	458425.958	8979333.786
N1255	458443.324	8979323.866
N1256	458460.690	8979313.945
N1257	458478.057	8979304.025
N1258	458495.423	8979294.105
N1259	458512.789	8979284.185
N1260	458530.156	8979274.265
N1261	458547.522	8979264.344
N1262	458564.888	8979254.424
N1263	458582.255	8979244.504
N1264	458599.621	8979234.584
N1265	458616.987	8979224.664
N1266	458634.354	8979214.743
N1267	458651.720	8979204.823
N1268	458669.086	8979194.903
N1269	458686.453	8979184.983
N1270	458703.819	8979175.063
N1271	458721.185	8979165.142
N1272	458738.552	8979155.222
N1273	458755.918	8979145.302
N1274	458773.284	8979135.382
N1275	458790.651	8979125.461
N1276	458808.017	8979115.541
N1277	458825.383	8979105.621
N1278	458842.750	8979095.701
N1279	458860.116	8979085.781
N1280	458877.482	8979075.860
N1281	458894.849	8979065.940
N1282	458912.215	8979056.020
N1283	458929.581	8979046.100
N1284	458946.948	8979036.180
N1285	458964.314	8979026.259
N1286	458981.680	8979016.339
N1287	458999.047	8979006.419
N1288	459016.413	8978996.499
N1289	459033.779	8978986.579
N1290	459051.146	8978976.658
N1291	459068.512	8978966.738
N1292	459085.878	8978956.818
N1293	459103.245	8978946.898
N1294	459120.611	8978936.978
N1295	459137.977	8978927.057
N1296	459155.344	8978917.137
N1297	459172.710	8978907.217
N1298	459190.076	8978897.297
N1299	459207.443	8978887.377
N1300	459224.809	8978877.456
N1301	459242.175	8978867.536
N1302	459259.542	8978857.616
N1303	459276.908	8978847.696
N1304	459294.274	8978837.776
N1305	459311.641	8978827.855
N1306	459329.007	8978817.935
N1307	459346.373	8978808.015
N1308	459363.740	8978798.095
N1309	459381.106	8978788.174
N1310	459398.472	8978778.254
N1311	459415.839	8978768.334
N1312	459433.205	8978758.414
N1313	459450.571	8978748.494
N1314	459467.938	8978738.573
N1315	459485.304	8978728.653
N1316	459502.670	8978718.733
N1317	459520.037	8978708.813
N1318	459537.403	8978698.893
N1319	459554.769	8978688.972
N1320	459572.136	8978679.052
N1321	459589.502	8978669.132
N1322	459606.868	8978659.212
N1323	459624.235	8978649.292
N1324	459641.601	8978639.371
N1325	459658.967	8978629.451
N1326	459676.334	8978619.531
N1327	459693.700	8978609.611
N1328	459711.066	8978599.691
N1329	459728.433	8978589.770
N1330	459745.799	8978579.850
N1331	459763.165	8978569.930
N1332	459780.532	8978560.010
N1333	459797.898	8978550.090
N1334	459815.264	8978540.169
N1335	459832.631	8978530.249
N1336	459849.997	8978520.329
N1337	459867.363	8978510.409
N1338	459884.730	8978500.488
N1339	459902.096	8978490.568
N1340	459919.462	8978480.648
N1341	459936.829	8978470.728
N1342	459954.195	8978460.808
N1343	459971.561	8978450.887
N1344	459988.928	8978440.967
N1345	460006.294	8978431.047
N1346	460023.660	8978421.127
N1347	460041.027	8978411.207
N1348	460058.393	8978401.286
N1349	460075.759	8978391.366
N1350	460093.125	8978381.446
N1351	460110.492	8978371.526
N1352	460127.858	8978361.606
N1353	460145.224	8978351.685
N1354	460162.591	8978341.765
N1355	460179.957	8978331.845
N1356	460197.323	8978321.925
N1357	460214.690	8978312.005
N1358	460232.056	8978302.084
N1359	460249.422	8978292.164
N1360	460266.789	8978282.244
N1361	460284.155	8978272.324
N1362	460301.521	8978262.404
N1363	460318.888	8978252.483
N1364	460336.254	8978242.563
N1365	460353.620	8978232.643
N1366	460370.987	8978222.723
N1367	460388.353	8978212.803
N1368	460405.727	8978202.898
N1369	460423.102	8978192.994
N1370	460440.478	8978183.090
N1371	460457.854	8978173.186
N1372	460475.229	8978163.282
N1373	460492.605	8978153.379
N1374	460509.981	8978143.475
N1375	460527.356	8978133.571
N1376	460544.732	8978123.667
N1377	460562.108	8978113.763
N1378	460579.483	8978103.859
N1379	460596.859	8978093.955
N1380	460614.235	8978084.051
N1381	460631.610	8978074.147
N1382	460648.986	8978064.244
N1383	460666.361	8978054.340
N1384	460683.737	8978044.436
N1385	460701.113	8978034.532
N1386	460718.488	8978024.628
N1387	460735.864	8978014.724
N1388	460753.240	8978004.820
N1389	460770.615	8977994.916
N1390	460787.991	8977985.012
N1391	460805.367	8977975.108
N1392	460822.742	8977965.205
N1393	460840.118	8977955.301
N1394	460857.493	8977945.397
N1395	460874.869	8977935.493
N1396	460892.245	8977925.589
N1397	460909.620	8977915.685
N1398	460926.996	8977905.781
N1399	460944.372	8977895.877
N1400	460961.747	8977885.973
N1401	460979.123	8977876.070
N1402	460996.499	8977866.166
N1403	461013.874	8977856.262
N1404	461031.250	8977846.358
N1405	461048.626	8977836.454
N1406	461066.001	8977826.550
N1407	461083.377	8977816.646
N1408	461100.752	8977806.742
N1409	461118.128	8977796.838
N1410	461135.504	8977786.934
N1411	461152.879	8977777.031
N1412	461170.255	8977767.127
N1413	461187.631	8977757.223
N1414	461205.006	8977747.319
N1415	461222.382	8977737.415
N1416	461239.758	8977727.511
N1417	461257.133	8977717.607
N1418	461274.509	8977707.703
N1419	461291.884	8977697.799
N1420	461309.260	8977687.895
N1421	461326.636	8977677.992
N1422	461344.011	8977668.088
N1423	461361.387	8977658.184
N1424	461378.763	8977648.280
N1425	461396.138	8977638.376
N1426	461413.514	8977628.472
N1427	461430.890	8977618.568
N1428	461448.265	8977608.664
N1429	461465.641	8977598.760
N1430	461483.017	8977588.857
N1431	461500.392	8977578.953
N1432	461517.768	8977569.049
N1433	461535.143	8977559.145
N1434	461552.519	8977549.241
N1435	461569.895	8977539.337
N1436	461587.270	8977529.433
N1437	461604.646	8977519.529
N1438	461622.022	8977509.625
N1439	461639.397	8977499.721
N1440	461656.773	8977489.818
N1441	461674.149	8977479.914
N1442	461691.524	8977470.010
N1443	461708.900	8977460.106
N1444	461726.275	8977450.202
N1445	461743.651	8977440.298
N1446	461761.027	8977430.394
N1447	461778.388	8977420.457
N1448	461795.737	8977410.507
N1449	461813.087	8977400.558
N1450	461830.437	8977390.609
N1451	461847.786	8977380.659
N1452	461865.136	8977370.710
N1453	461882.485	8977360.760
N1454	461899.835	8977350.811
N1455	461917.185	8977340.862
N1456	461934.534	8977330.912
N1457	461951.884	8977320.963
N1458	461969.234	8977311.013
N1459	461986.583	8977301.064
N1460	462003.933	8977291.115
N1461	462021.283	8977281.165
N1462	462038.632	8977271.216
N1463	462055.982	8977261.266
N1464	462073.331	8977251.317
N1465	462090.681	8977241.368
N1466	462108.031	8977231.418
N1467	462125.380	8977221.469
N1468	462142.730	8977211.520
N1469	462160.080	8977201.570
N1470	462177.429	8977191.621
N1471	462194.779	8977181.671
N1472	462212.128	8977171.722
N1473	462229.478	8977161.773
N1474	462246.828	8977151.823
N1475	462264.177	8977141.874
N1476	462281.527	8977131.924
N1477	462298.877	8977121.975
N1478	462316.226	8977112.026
N1479	462333.576	8977102.076
N1480	462350.925	8977092.127
N1481	462368.275	8977082.177
N1482	462385.625	8977072.228
N1483	462402.974	8977062.279
N1484	462420.324	8977052.329
N1485	462437.674	8977042.380
N1486	462455.023	8977032.431
N1487	462472.373	8977022.481
N1488	462489.723	8977012.532
N1489	462507.072	8977002.582
N1490	462524.422	8976992.633
N1491	462541.771	8976982.684
N1492	462559.121	8976972.734
N1493	462576.471	8976962.785
N1494	462593.820	8976952.835
N1495	462611.170	8976942.886
N1496	462628.520	8976932.937
N1497	462645.869	8976922.987
N1498	462663.219	8976913.038
N1499	462680.568	8976903.088
N1500	462697.918	8976893.139
N1501	462715.268	8976883.190
N1502	462732.617	8976873.240
N1503	462749.967	8976863.291
N1504	462767.317	8976853.341
N1505	462784.666	8976843.392
N1506	462802.016	8976833.443
N1507	462819.365	8976823.493
N1508	462836.715	8976813.544
N1509	462854.065	8976803.595
N1510	462871.414	8976793.645
N1511	462888.764	8976783.696
N1512	462906.114	8976773.746
N1513	462923.463	8976763.797
N1514	462940.813	8976753.848
N1515	462958.162	8976743.898
N1516	462975.512	8976733.949
N1517	462992.862	8976723.999
N1518	463010.211	8976714.050
N1519	463027.561	8976704.101
N1520	463044.911	8976694.151
N1521	463062.260	8976684.202
N1522	463078.239	8976671.800
N1523	463091.624	8976656.939
N1524	463105.008	8976642.078
N1525	463118.393	8976627.217
N1526	463131.778	8976612.356
N1527	463145.162	8976597.495
N1528	463158.325	8976583.489
N1529	463176.859	8976575.973
N1530	463195.392	8976568.456
N1531	463213.926	8976560.940
N1532	463232.460	8976553.423
N1533	463250.994	8976545.907
N1534	463269.528	8976538.391
N1535	463288.062	8976530.874
N1536	463306.596	8976523.358
N1537	463325.130	8976515.842
N1538	463343.663	8976508.325
N1539	463362.197	8976500.809
N1540	463380.731	8976493.293
N1541	463399.265	8976485.776
N1542	463417.799	8976478.260
N1543	463436.333	8976470.744
N1544	463454.867	8976463.227
N1545	463473.401	8976455.711
N1546	463491.934	8976448.195
N1547	463509.648	8976438.522
N1548	463526.895	8976428.395
N1549	463544.142	8976418.269
N1550	463561.389	8976408.142
N1551	463578.636	8976398.016
N1552	463595.883	8976387.890
N1553	463613.130	8976377.763
N1554	463630.377	8976367.637
N1555	463647.624	8976357.510
N1556	463664.870	8976347.384
N1557	463682.117	8976337.257
N1558	463699.364	8976327.131
N1559	463716.611	8976317.005
N1560	463733.858	8976306.878
N1561	463751.105	8976296.752
N1562	463768.352	8976286.625
N1563	463785.599	8976276.499
N1564	463802.846	8976266.373
N1565	463820.093	8976256.246
N1566	463837.340	8976246.120
N1567	463854.586	8976235.993
N1568	463871.833	8976225.867
N1569	463889.080	8976215.741
N1570	463906.327	8976205.614
N1571	463923.574	8976195.488
N1572	463940.821	8976185.361
N1573	463958.068	8976175.235
N1574	463975.315	8976165.109
N1575	463992.562	8976154.982
N1576	464009.809	8976144.856
N1577	464027.056	8976134.729
N1578	464044.302	8976124.603
N1579	464061.549	8976114.477
N1580	464078.796	8976104.350
N1581	464096.043	8976094.224
N1582	464113.290	8976084.097
N1583	464130.537	8976073.971
N1584	464147.784	8976063.845
N1585	464165.031	8976053.718
N1586	464182.278	8976043.592
N1587	464199.525	8976033.465
N1588	464216.772	8976023.339
N1589	464234.018	8976013.212
N1590	464251.259	8976003.074
N1591	464268.499	8975992.935
N1592	464285.739	8975982.797
N1593	464302.979	8975972.658
N1594	464320.218	8975962.519
N1595	464337.458	8975952.381
N1596	464354.698	8975942.242
N1597	464371.937	8975932.103
N1598	464389.177	8975921.965
N1599	464401.759	8975906.366
N1600	464410.355	8975888.307
N1601	464418.951	8975870.249
N1602	464427.546	8975852.190
N1603	464436.142	8975834.131
N1604	464444.738	8975816.073
N1605	464453.334	8975798.014
N1606	464461.930	8975779.956
N1607	464470.526	8975761.897
N1608	464479.121	8975743.839
N1609	464487.717	8975725.780
N1610	464496.313	8975707.721
N1611	464504.909	8975689.663
N1612	464513.505	8975671.604
N1613	464522.100	8975653.546
N1614	464530.696	8975635.487
N1615	464539.292	8975617.429
N1616	464547.888	8975599.370
N1617	464556.484	8975581.311
N1618	464565.080	8975563.253
N1619	464573.675	8975545.194
N1620	464582.271	8975527.136
N1621	464590.867	8975509.077
N1622	464599.463	8975491.019
N1623	464608.059	8975472.960
N1624	464616.654	8975454.901
N1625	464625.250	8975436.843
N1626	464633.846	8975418.784
N1627	464642.442	8975400.726
N1628	464651.038	8975382.667
N1629	464659.633	8975364.609
N1630	464668.229	8975346.550
N1631	464676.825	8975328.491
N1632	464685.421	8975310.433
N1633	464694.017	8975292.374
N1634	464702.613	8975274.316
N1635	464711.208	8975256.257
N1636	464719.804	8975238.199
N1637	464728.400	8975220.140
N1638	464736.996	8975202.081
N1639	464745.592	8975184.023
N1640	464754.187	8975165.964
N1641	464767.167	8975156.979
N1642	464787.112	8975155.504
N1643	464807.058	8975154.029
N1644	464827.003	8975152.554
N1645	464846.949	8975151.079
N1646	464866.894	8975149.604
N1647	464886.840	8975148.129
N1648	464906.785	8975146.654
N1649	464926.731	8975145.179
N1650	464946.676	8975143.704
N1651	464966.446	8975139.461
N1652	464985.420	8975133.138
N1653	465004.394	8975126.814
N1654	465023.368	8975120.491
N1655	465042.342	8975114.167
N1656	465061.316	8975107.844
N1657	465080.290	8975101.520
N1658	465099.264	8975095.197
N1659	465118.238	8975088.873
N1660	465137.212	8975082.550
N1661	465156.186	8975076.226
N1662	465175.160	8975069.903
N1663	465194.134	8975063.580
N1664	465213.108	8975057.256
N1665	465232.082	8975050.933
N1666	465251.056	8975044.609
N1667	465270.030	8975038.286
N1668	465289.004	8975031.962
N1669	465307.978	8975025.639
N1670	465326.952	8975019.315
N1671	465345.926	8975012.992
N1672	465364.900	8975006.668
N1673	465383.874	8975000.345
N1674	465402.848	8974994.021
N1675	465421.822	8974987.698
N1676	465440.796	8974981.374
N1677	465459.770	8974975.051
N1678	465478.744	8974968.728
N1679	465497.718	8974962.404
N1680	465516.692	8974956.081
N1681	465535.666	8974949.757
N1682	465554.640	8974943.434
N1683	465573.614	8974937.110
N1684	465592.589	8974930.787
N1685	465611.563	8974924.463
N1686	465630.537	8974918.140
N1687	465649.511	8974911.816
N1688	465668.485	8974905.493
N1689	465687.459	8974899.169
N1690	465706.433	8974892.846
N1691	465725.407	8974886.522
N1692	465744.381	8974880.199
N1693	465763.355	8974873.876
N1694	465782.329	8974867.552
N1695	465801.303	8974861.229
N1696	465820.277	8974854.905
N1697	465839.251	8974848.582
N1698	465858.225	8974842.258
N1699	465877.199	8974835.935
N1700	465896.173	8974829.611
N1701	465915.147	8974823.288
N1702	465934.121	8974816.964
N1703	465953.095	8974810.641
N1704	465972.069	8974804.317
N1705	465991.043	8974797.994
N1706	466010.017	8974791.670
N1707	466028.991	8974785.347
N1708	466047.965	8974779.024
N1709	466066.939	8974772.700
N1710	466085.913	8974766.377
N1711	466104.887	8974760.053
N1712	466123.861	8974753.730
N1713	466142.835	8974747.406
N1714	466161.809	8974741.083
N1715	466180.783	8974734.759
N1716	466199.757	8974728.436
N1717	466218.731	8974722.112
N1718	466237.706	8974715.789
N1719	466256.680	8974709.465
N1720	466275.654	8974703.142
N1721	466294.628	8974696.818
N1722	466313.602	8974690.495
N1723	466332.576	8974684.172
N1724	466351.550	8974677.848
N1725	466370.524	8974671.525
N1726	466389.498	8974665.201
N1727	466408.472	8974658.878
N1728	466427.590	8974655.055
N1729	466447.524	8974653.426
N1730	466467.457	8974651.797
N1731	466487.391	8974650.167
N1732	466507.324	8974648.538
N1733	466527.258	8974646.909
N1734	466547.191	8974645.279
N1735	466567.125	8974643.650
N1736	466587.058	8974642.021
N1737	466606.992	8974640.392
N1738	466626.926	8974638.762
N1739	466646.824	8974637.884
N1740	466666.815	8974637.278
N1741	466686.806	8974636.673
N1742	466706.797	8974636.067
N1743	466726.787	8974635.461
N1744	466746.778	8974634.855
N1745	466766.769	8974634.249
N1746	466786.760	8974633.643
N1747	466806.751	8974633.037
N1748	466826.741	8974632.431
N1749	466846.732	8974631.825
N1750	466866.723	8974631.219
N1751	466886.714	8974630.613
N1752	466906.705	8974630.007
N1753	466926.696	8974629.402
N1754	466946.686	8974628.796
N1755	466966.677	8974628.190
N1756	466986.668	8974627.584
N1757	467006.659	8974626.978
N1758	467026.650	8974626.372
N1759	467046.640	8974625.766
N1760	467066.631	8974625.160
N1761	467086.622	8974624.554
N1762	467106.613	8974623.948
N1763	467126.604	8974623.342
N1764	467146.595	8974622.736
N1765	467166.585	8974622.131
N1766	467186.576	8974621.525
N1767	467206.567	8974620.919
N1768	467226.558	8974620.313
N1769	467246.549	8974619.707
N1770	467266.540	8974619.101
N1771	467286.530	8974618.495
N1772	467306.521	8974617.889
N1773	467326.512	8974617.283
N1774	467346.503	8974616.677
N1775	467366.494	8974616.071
N1776	467386.484	8974615.465
N1777	467406.387	8974615.463
N1778	467426.379	8974616.034
N1779	467446.371	8974616.606
N1780	467466.363	8974617.177
N1781	467486.355	8974617.749
N1782	467506.347	8974618.320
N1783	467526.338	8974618.891
N1784	467546.330	8974619.463
N1785	467566.322	8974620.034
N1786	467586.314	8974620.605
N1787	467606.306	8974621.177
N1788	467626.298	8974621.748
N1789	467646.290	8974622.320
N1790	467666.281	8974622.891
N1791	467686.273	8974623.462
N1792	467706.265	8974624.034
N1793	467726.257	8974624.605
N1794	467746.249	8974625.176
N1795	467766.241	8974625.748
N1796	467786.232	8974626.319
N1797	467806.224	8974626.890
N1798	467826.216	8974627.462
N1799	467846.208	8974628.033
N1800	467866.200	8974628.605
N1801	467886.192	8974629.176
N1802	467906.183	8974629.747
N1803	467926.190	8974630.316
N1804	467946.187	8974630.691
N1805	467966.183	8974631.065
N1806	467986.180	8974631.440
N1807	468006.176	8974631.814
N1808	468026.173	8974632.188
N1809	468046.169	8974632.563
N1810	468066.166	8974632.937
N1811	468086.162	8974633.312
N1812	468106.159	8974633.686
N1813	468126.155	8974634.061
N1814	468146.151	8974634.435
N1815	468166.249	8974632.981
N1816	468186.157	8974631.063
N1817	468206.065	8974629.145
N1818	468225.973	8974627.227
N1819	468245.881	8974625.308
N1820	468265.788	8974623.390
N1821	468285.696	8974621.472
N1822	468305.604	8974619.554
N1823	468325.512	8974617.636
N1824	468345.420	8974615.718
N1825	468365.328	8974613.800
N1826	468385.235	8974611.882
N1827	468405.143	8974609.964
N1828	468425.051	8974608.046
N1829	468444.959	8974606.128
N1830	468464.867	8974604.210
N1831	468484.774	8974602.291
N1832	468504.682	8974600.373
N1833	468524.186	8974601.185
N1834	468544.000	8974603.909
N1835	468563.814	8974606.633
N1836	468583.627	8974609.356
N1837	468603.441	8974612.080
N1838	468623.255	8974614.804
N1839	468643.369	8974616.507
N1840	468663.362	8974615.984
N1841	468683.355	8974615.461
N1842	468703.348	8974614.938
N1843	468723.342	8974614.415
N1844	468743.335	8974613.892
N1845	468763.328	8974613.369
N1846	468783.321	8974612.846
N1847	468803.314	8974612.323
N1848	468823.307	8974611.800
N1849	468843.301	8974611.277
N1850	468863.447	8974610.562
N1851	468883.256	8974607.805
N1852	468903.065	8974605.048
N1853	468922.874	8974602.291
N1854	468942.683	8974599.534
N1855	468962.266	8974600.342
N1856	468982.201	8974601.957
N1857	469002.135	8974603.573
N1858	469022.070	8974605.188
N1859	469042.005	8974606.803
N1860	469061.939	8974608.419
N1861	469081.874	8974610.034
N1862	469101.564	8974612.425
N1863	469121.253	8974615.938
N1864	469140.942	8974619.451
N1865	469160.631	8974622.964
N1866	469180.320	8974626.476
N1867	469200.009	8974629.989
N1868	469219.698	8974633.502
N1869	469239.387	8974637.015
N1870	469259.076	8974640.528
N1871	469278.765	8974644.041
N1872	469298.454	8974647.554
N1873	469318.144	8974651.066
N1874	469337.833	8974654.579
N1875	469357.522	8974658.092
N1876	469377.019	8974662.163
N1877	469396.506	8974666.664
N1878	469415.993	8974671.165
N1879	469435.480	8974675.666
N1880	469454.967	8974680.167
N1881	469474.454	8974684.668
N1882	469493.941	8974689.169
N1883	469513.428	8974693.670
N1884	469532.602	8974698.874
N1885	469551.680	8974704.877
N1886	469570.758	8974710.880
N1887	469589.836	8974716.884
N1888	469609.602	8974720.892
N1889	469629.301	8974724.352
N1890	469648.999	8974727.812
N1891	469668.698	8974731.271
N1892	469688.396	8974734.731
N1893	469708.095	8974738.190
N1894	469727.542	8974742.492
N1895	469747.029	8974746.989
N1896	469766.517	8974751.486
N1897	469786.005	8974755.983
N1898	469805.531	8974760.432
N1899	469825.094	8974764.586
N1900	469844.658	8974768.739
N1901	469864.222	8974772.893
N1902	469883.786	8974777.047
N1903	469903.617	8974780.597
N1904	469923.530	8974782.469
N1905	469943.671	8974784.266
N1906	469963.637	8974783.094
N1907	469983.603	8974781.922
N1908	470003.576	8974778.800
N1909	470022.746	8974773.097
N1910	470041.916	8974767.395
N1911	470061.085	8974761.692
N1912	470080.255	8974755.989
N1913	470099.425	8974750.286
N1914	470118.594	8974744.584
N1915	470137.872	8974739.489
N1916	470157.249	8974734.539
N1917	470176.627	8974729.588
N1918	470196.004	8974724.637
N1919	470215.382	8974719.686
N1920	470234.759	8974714.735
N1921	470254.137	8974709.784
N1922	470273.514	8974704.833
N1923	470292.892	8974699.882
N1924	470312.269	8974694.931
N1925	470331.647	8974689.980
N1926	470351.024	8974685.029
N1927	470370.402	8974680.078
N1928	470389.779	8974675.127
N1929	470409.157	8974670.176
N1930	470428.534	8974665.225
N1931	470447.912	8974660.274
N1932	470467.289	8974655.323
N1933	470486.667	8974650.372
N1934	470506.044	8974645.421
N1935	470525.422	8974640.470
N1936	470544.800	8974635.520
N1937	470563.983	8974629.603
N1938	470583.087	8974623.685
N1939	470602.191	8974617.766
N1940	470621.295	8974611.848
N1941	470640.400	8974605.929
N1942	470659.504	8974600.011
N1943	470678.608	8974594.092
N1944	470697.712	8974588.174
N1945	470716.817	8974582.255
N1946	470735.921	8974576.337
N1947	470755.006	8974570.478
N1948	470774.244	8974565.010
N1949	470793.482	8974559.543
N1950	470812.720	8974554.076
N1951	470831.959	8974548.609
N1952	470851.197	8974543.141
N1953	470870.435	8974537.674
N1954	470889.673	8974532.207
N1955	470908.912	8974526.739
N1956	470928.150	8974521.272
N1957	470947.388	8974515.805
N1958	470966.626	8974510.338
N1959	470985.864	8974504.870
N1960	471005.103	8974499.403
N1961	471024.341	8974493.936
N1962	471043.579	8974488.469
N1963	471062.817	8974483.001
N1964	471082.055	8974477.534
N1965	471101.294	8974472.067
N1966	471120.532	8974466.600
N1967	471139.770	8974461.132
N1968	471159.008	8974455.665
N1969	471178.247	8974450.198
N1970	471197.485	8974444.731
N1971	471216.723	8974439.263
N1972	471235.961	8974433.796
N1973	471255.199	8974428.329
N1974	471274.438	8974422.862
N1975	471293.676	8974417.394
N1976	471312.914	8974411.927
N1977	471332.152	8974406.460
N1978	471351.391	8974400.993
N1979	471370.629	8974395.525
N1980	471389.867	8974390.058
N1981	471409.105	8974384.591
N1982	471428.343	8974379.124
N1983	471447.582	8974373.656
N1984	471466.820	8974368.189
N1985	471486.058	8974362.722
N1986	471505.296	8974357.255
N1987	471524.535	8974351.787
N1988	471543.773	8974346.320
N1989	471563.011	8974340.853
N1990	471582.249	8974335.386
N1991	471601.487	8974329.918
N1992	471620.756	8974324.628
N1993	471640.057	8974319.386
N1994	471659.358	8974314.144
N1995	471678.659	8974308.902
N1996	471697.960	8974303.661
N1997	471717.261	8974298.419
N1998	471736.562	8974293.177
N1999	471755.863	8974287.935
N2000	471775.164	8974282.694
N2001	471794.464	8974277.452
N2002	471813.765	8974272.210
N2003	471833.066	8974266.968
N2004	471852.367	8974261.727
N2005	471871.668	8974256.485
N2006	471890.969	8974251.243
N2007	471910.270	8974246.001
N2008	471929.571	8974240.760
N2009	471948.872	8974235.518
N2010	471968.172	8974230.276
N2011	471987.473	8974225.034
N2012	472006.774	8974219.793
N2013	472026.075	8974214.551
N2014	472045.376	8974209.309
N2015	472064.677	8974204.067
N2016	472083.978	8974198.826
N2017	472103.279	8974193.584
N2018	472122.579	8974188.342
N2019	472141.885	8974183.206
N2020	472161.261	8974178.245
N2021	472180.636	8974173.285
N2022	472200.011	8974168.325
N2023	472219.425	8974163.083
N2024	472238.351	8974156.618
N2025	472257.277	8974150.152
N2026	472276.215	8974143.341
N2027	472294.470	8974135.171
N2028	472312.726	8974127.002
N2029	472330.981	8974118.833
N2030	472349.237	8974110.664
N2031	472367.493	8974102.495
N2032	472385.748	8974094.326
N2033	472404.004	8974086.157
N2034	472422.259	8974077.988
N2035	472440.515	8974069.819
N2036	472458.770	8974061.650
N2037	472477.026	8974053.481
N2038	472495.282	8974045.311
N2039	472513.537	8974037.142
N2040	472531.793	8974028.973
N2041	472550.048	8974020.804
N2042	472568.304	8974012.635
N2043	472586.559	8974004.466
N2044	472604.815	8973996.297
N2045	472623.136	8973988.062
N2046	472640.885	8973978.844
N2047	472658.634	8973969.626
N2048	472676.383	8973960.407
N2049	472694.131	8973951.189
N2050	472711.880	8973941.971
N2051	472729.629	8973932.753
N2052	472747.378	8973923.534
N2053	472765.127	8973914.316
N2054	472782.876	8973905.098
N2055	472800.625	8973895.880
N2056	472818.374	8973886.661
N2057	472836.123	8973877.443
N2058	472853.872	8973868.225
N2059	472871.621	8973859.007
N2060	472889.370	8973849.788
N2061	472907.118	8973840.570
N2062	472924.867	8973831.352
N2063	472942.616	8973822.134
N2064	472960.365	8973812.915
N2065	472978.078	8973803.610
N2066	472995.774	8973794.290
N2067	473013.469	8973784.969
N2068	473031.165	8973775.649
N2069	473048.860	8973766.328
N2070	473066.556	8973757.008
N2071	473084.251	8973747.687
N2072	473101.947	8973738.367
N2073	473119.277	8973728.006
N2074	473135.152	8973715.841
N2075	473151.026	8973703.675
N2076	473166.901	8973691.510
N2077	473182.775	8973679.345
N2078	473198.650	8973667.179
N2079	473214.810	8973654.716
N2080	473226.767	8973638.683
N2081	473238.723	8973622.650
N2082	473250.679	8973606.618
N2083	473262.636	8973590.585
N2084	473274.592	8973574.552
N2085	473286.548	8973558.520
N2086	473298.505	8973542.487
N2087	473310.461	8973526.455
N2088	473322.418	8973510.422
N2089	473334.374	8973494.389
N2090	473346.330	8973478.357
N2091	473358.287	8973462.324
N2092	473370.243	8973446.291
N2093	473382.200	8973430.259
N2094	473394.156	8973414.226
N2095	473406.112	8973398.194
N2096	473418.069	8973382.161
N2097	473430.025	8973366.128
N2098	473441.981	8973350.096
N2099	473453.938	8973334.063
N2100	473465.894	8973318.031
N2101	473477.851	8973301.998
N2102	473489.807	8973285.965
N2103	473501.763	8973269.933
N2104	473513.720	8973253.900
N2105	473525.676	8973237.867
N2106	473537.633	8973221.835
N2107	473549.589	8973205.802
N2108	473561.545	8973189.770
N2109	473573.502	8973173.737
N2110	473585.458	8973157.704
N2111	473597.414	8973141.672
N2112	473609.371	8973125.639
N2113	473621.327	8973109.606
N2114	473633.284	8973093.574
N2115	473645.267	8973077.566
N2116	473657.259	8973061.560
N2117	473669.251	8973045.554
N2118	473681.243	8973029.548
N2119	473693.235	8973013.542
N2120	473705.227	8972997.536
N2121	473717.219	8972981.530
N2122	473729.211	8972965.524
N2123	473741.203	8972949.518
N2124	473753.195	8972933.512
N2125	473765.187	8972917.506
N2126	473777.179	8972901.500
N2127	473789.171	8972885.494
N2128	473801.163	8972869.488
N2129	473813.155	8972853.482
N2130	473825.147	8972837.476
N2131	473837.139	8972821.470
N2132	473849.131	8972805.464
N2133	473860.978	8972789.299
N2134	473872.504	8972772.954
N2135	473884.031	8972756.610
N2136	473895.557	8972740.265
N2137	473907.084	8972723.921
N2138	473918.610	8972707.577
N2139	473930.137	8972691.232
N2140	473941.337	8972674.599
N2141	473952.249	8972657.839
N2142	473963.162	8972641.078
N2143	473974.074	8972624.317
N2144	473984.987	8972607.557
N2145	473991.638	8972588.324
N2146	473997.821	8972569.304
N2147	474004.005	8972550.284
N2148	474009.838	8972531.119
N2149	474015.586	8972511.963
N2150	474017.347	8972491.763
N2151	474017.958	8972471.773
N2152	474018.569	8972451.782
N2153	474019.179	8972431.791
N2154	474020.209	8972411.949
N2155	474022.394	8972392.069
N2157	474051.330	8972375.952
N2159	474090.106	8972366.131
N2160	474109.080	8972358.987
N2161	474125.076	8972346.981
N2162	474141.100	8972335.055
UHURU_PARK_GBR_IN	474182.286	8972308.308
UHURU_PARK_GBR_VD	474189.286	8972301.308
TUNDUMA_ESR_IN	473986.943	8972420.863
TUNDUMA_ESR_VD	473993.943	8972413.863
UHURU_GSR01_IN	474035.718	8972351.042
UHURU_GSR01_VD	474042.718	8972344.042
IPITO_GSR02_IN	475858.011	8970058.325
IPITO_GSR02_VD	475865.011	8970051.325
N2165	474260.677	8972305.057
N2166	474273.648	8972289.834
N2167	474286.618	8972274.610
N2168	474299.589	8972259.386
N2169	474242.778	8972141.357
N2170	474168.153	8972109.212
N2171	474140.543	8972071.325
N2172	474093.697	8972053.849
N2173	474046.850	8972036.372
N2174	474040.694	8971992.755
N2175	474040.737	8971942.755
N2176	474040.780	8971892.755
N2177	474040.822	8971842.755
N2178	474040.865	8971792.755
N2179	474040.908	8971742.755
N2180	474040.950	8971692.755
N2181	474040.993	8971642.755
N2182	474041.036	8971592.755
N2183	474041.079	8971542.755
N2184	474041.121	8971492.756
N2185	474041.164	8971442.756
N2186	474041.207	8971392.756
N2187	474041.249	8971342.756
N2188	474041.292	8971292.756
N2189	474041.335	8971242.756
N2190	474041.377	8971192.756
N2191	474041.420	8971142.756
N2192	474041.463	8971092.756
N2193	474041.505	8971042.756
N2194	474041.548	8970992.756
N2195	474084.200	8970988.623
N2196	474134.199	8970988.864
N2197	474184.199	8970989.106
N2198	474223.369	8970975.678
N2199	474222.320	8970925.689
N2200	474221.819	8970875.761
N2201	474222.792	8970825.770
N2202	474223.765	8970775.779
N2203	474224.738	8970725.789
N2204	474223.693	8970675.717
N2205	474197.733	8970635.560
N2206	474197.769	8970591.016
N2207	474206.872	8970541.852
N2208	474235.426	8970502.391
N2209	474274.330	8970502.314
N2210	474320.076	8970522.496
N2211	474367.274	8970535.611
N2212	474412.156	8970513.411
N2213	474455.377	8970488.273
N2214	474498.599	8970463.136
N2215	474541.821	8970437.998
N2216	474585.042	8970412.861
N2217	474628.264	8970387.723
N2218	474665.754	8970355.882
N2219	474692.268	8970323.250
N2220	474735.475	8970313.495
N2221	474770.377	8970277.692
N2222	474816.951	8970265.549
N2223	474866.081	8970256.258
N2224	474915.210	8970246.967
N2225	474964.339	8970237.676
N2226	475013.797	8970236.548
N2227	475063.688	8970231.148
N2228	475113.336	8970225.223
N2229	475159.458	8970241.904
N2230	475206.157	8970259.769
N2231	475253.818	8970263.542
N2232	475300.160	8970244.768
N2233	475345.771	8970223.537
N2234	475354.900	8970174.378
N2235	475364.030	8970125.218
N2236	475392.382	8970087.269
N2237	475433.210	8970076.666
N2238	475479.910	8970077.291
N2239	475517.594	8970067.130
N2240	475563.203	8970086.925
N2241	475606.599	8970112.091
N2242	475640.503	8970098.489
N2243	475646.646	8970049.210
N2244	475674.063	8970008.881
N2245	475710.881	8969982.066
N2246	475759.917	8969991.833
N2247	475809.747	8969984.514
N2248	475849.959	8969997.472
N2249	475872.295	8970040.125
N2252	474217.584	8972286.032
N2253	474247.649	8972256.499
N2254	474262.521	8972269.870
N2255	474277.394	8972283.242
N2256	474276.271	8972209.846
N2257	474264.345	8972096.248
N2258	474286.348	8972052.040
N2259	474321.292	8972016.279
N2260	474356.237	8971980.518
N2261	474394.836	8971949.541
N2262	474435.999	8971921.158
N2263	474480.831	8971899.621
N2264	474526.016	8971878.213
N2265	474572.720	8971863.228
N2266	474622.440	8971861.602
N2267	474671.943	8971864.978
N2268	474721.461	8971871.898
N2269	474768.182	8971887.080
N2270	474813.871	8971907.392
N2271	474860.750	8971925.033
N2272	474908.237	8971940.687
N2273	474956.040	8971924.927
N2274	474998.247	8971897.807
N2275	475040.206	8971870.321
N2276	475078.970	8971839.255
N2277	475122.488	8971814.634
N2278	475167.088	8971792.580
N2279	475213.923	8971806.794
N2280	475264.285	8971803.857
MAKAMBINI_GSR03_IN	475547.645	8972075.457
MAKAMBINI_GSR03_VD	475554.645	8972068.457
CHAPWA_GSR04_IN	477260.327	8973034.055
CHAPWA_GSR04_VD	477267.327	8973027.055
N2282	475359.157	8971828.805
N2283	475402.760	8971852.859
N2284	475446.492	8971877.097
N2285	475490.607	8971900.701
N2286	475535.460	8971923.563
N2287	475584.956	8971931.831
N2288	475633.890	8971921.734
N2289	475678.272	8971898.372
N2290	475723.866	8971877.434
N2291	475758.799	8971841.661
N2292	475798.924	8971812.660
N2293	475845.537	8971800.431
N2294	475890.423	8971814.924
N2295	475929.069	8971847.009
N2296	475973.062	8971869.776
N2297	476017.605	8971891.240
N2298	476066.368	8971901.798
N2299	476114.640	8971914.389
N2300	476162.031	8971930.330
N2301	476199.904	8971961.111
N2302	476226.168	8972003.195
N2303	476242.869	8972049.286
N2304	476249.441	8972098.945
N2305	476249.740	8972148.552
N2306	476257.296	8972197.906
N2307	476270.680	8972246.082
N2308	476284.272	8972294.219
N2309	476298.300	8972342.210
N2310	476313.222	8972389.978
N2311	476328.854	8972437.471
N2312	476363.849	8972471.730
N2313	476406.226	8972498.958
N2314	476456.214	8972500.080
N2315	476505.768	8972492.976
N2316	476554.636	8972482.396
N2317	476603.399	8972477.613
N2318	476652.342	8972483.381
N2319	476696.956	8972505.321
N2320	476739.983	8972530.967
N2321	476784.406	8972553.914
N2322	476828.830	8972576.861
N2323	476871.563	8972601.166
N2324	476901.482	8972639.964
N2325	476921.911	8972685.601
N2326	476942.220	8972731.286
N2327	476962.522	8972776.978
N2328	476982.825	8972822.671
N2329	477000.983	8972868.796
N2330	477012.555	8972917.439
N2331	477023.404	8972966.045
N2332	477041.643	8973010.997
N2333	477084.725	8973032.743
N2334	477134.541	8973038.157
N2335	477184.539	8973038.604
N2336	477232.931	8973049.259
N2337	477270.870	8973026.477

[END]
